#   Hz   S  RI   R   50
!
0.000000e+00 2.782947e-02 0.000000e+00 9.615253e-01 0.000000e+00 9.615249e-01 0.000000e+00 2.786161e-02 0.000000e+00
3.500000e+07 2.794646e-02 9.835784e-03 9.614013e-01 -1.065788e-02 9.614009e-01 -1.065788e-02 2.797857e-02 9.832105e-03
7.000000e+07 2.829720e-02 1.966333e-02 9.610295e-01 -2.130685e-02 9.610291e-01 -2.130685e-02 2.832923e-02 1.965597e-02
1.050000e+08 2.888107e-02 2.947443e-02 9.604106e-01 -3.193801e-02 9.604102e-01 -3.193801e-02 2.891295e-02 2.946340e-02
1.400000e+08 2.969702e-02 3.926092e-02 9.595457e-01 -4.254254e-02 9.595453e-01 -4.254254e-02 2.972868e-02 3.924624e-02
1.750000e+08 3.074357e-02 4.901475e-02 9.584366e-01 -5.311172e-02 9.584362e-01 -5.311171e-02 3.077496e-02 4.899642e-02
2.100000e+08 3.201886e-02 5.872795e-02 9.570851e-01 -6.363693e-02 9.570847e-01 -6.363693e-02 3.204992e-02 5.870600e-02
2.450000e+08 3.352061e-02 6.839272e-02 9.554938e-01 -7.410974e-02 9.554935e-01 -7.410974e-02 3.355129e-02 6.836716e-02
2.800000e+08 3.524620e-02 7.800140e-02 9.536657e-01 -8.452187e-02 9.536653e-01 -8.452187e-02 3.527643e-02 7.797225e-02
3.150000e+08 3.719259e-02 8.754653e-02 9.516039e-01 -9.486527e-02 9.516036e-01 -9.486526e-02 3.722233e-02 8.751383e-02
3.500000e+08 3.935643e-02 9.702086e-02 9.493123e-01 -1.051321e-01 9.493119e-01 -1.051321e-01 3.938562e-02 9.698463e-02
3.850000e+08 4.173402e-02 1.064174e-01 9.467947e-01 -1.153148e-01 9.467944e-01 -1.153148e-01 4.176261e-02 1.063776e-01
4.200000e+08 4.432136e-02 1.157293e-01 9.440557e-01 -1.254061e-01 9.440554e-01 -1.254061e-01 4.434929e-02 1.156861e-01
4.550000e+08 4.711414e-02 1.249501e-01 9.410999e-01 -1.353989e-01 9.410996e-01 -1.353989e-01 4.714136e-02 1.249035e-01
4.900000e+08 5.010778e-02 1.340737e-01 9.379324e-01 -1.452867e-01 9.379321e-01 -1.452867e-01 5.013426e-02 1.340237e-01
5.250000e+08 5.329748e-02 1.430940e-01 9.345584e-01 -1.550630e-01 9.345581e-01 -1.550630e-01 5.332316e-02 1.430407e-01
5.600000e+08 5.667819e-02 1.520055e-01 9.309834e-01 -1.647218e-01 9.309831e-01 -1.647218e-01 5.670302e-02 1.519489e-01
5.950000e+08 6.024465e-02 1.608029e-01 9.272132e-01 -1.742575e-01 9.272129e-01 -1.742575e-01 6.026860e-02 1.607430e-01
6.300000e+08 6.399146e-02 1.694812e-01 9.232537e-01 -1.836647e-01 9.232534e-01 -1.836647e-01 6.401448e-02 1.694181e-01
6.650000e+08 6.791303e-02 1.780358e-01 9.191110e-01 -1.929386e-01 9.191107e-01 -1.929385e-01 6.793509e-02 1.779695e-01
7.000000e+08 7.200366e-02 1.864623e-01 9.147913e-01 -2.020744e-01 9.147910e-01 -2.020744e-01 7.202472e-02 1.863929e-01
7.350000e+08 7.625754e-02 1.947568e-01 9.103010e-01 -2.110681e-01 9.103007e-01 -2.110681e-01 7.627757e-02 1.946844e-01
7.700000e+08 8.066877e-02 2.029156e-01 9.056465e-01 -2.199158e-01 9.056462e-01 -2.199158e-01 8.068773e-02 2.028402e-01
8.050000e+08 8.523140e-02 2.109355e-01 9.008343e-01 -2.286139e-01 9.008340e-01 -2.286139e-01 8.524926e-02 2.108571e-01
8.400000e+08 8.993942e-02 2.188134e-01 8.958709e-01 -2.371594e-01 8.958707e-01 -2.371594e-01 8.995617e-02 2.187321e-01
8.750000e+08 9.478683e-02 2.265467e-01 8.907630e-01 -2.455496e-01 8.907628e-01 -2.455496e-01 9.480243e-02 2.264626e-01
9.100000e+08 9.976761e-02 2.341330e-01 8.855170e-01 -2.537819e-01 8.855168e-01 -2.537819e-01 9.978204e-02 2.340461e-01
9.450000e+08 1.048758e-01 2.415703e-01 8.801395e-01 -2.618542e-01 8.801393e-01 -2.618542e-01 1.048890e-01 2.414807e-01
9.800000e+08 1.101053e-01 2.488568e-01 8.746370e-01 -2.697650e-01 8.746368e-01 -2.697650e-01 1.101174e-01 2.487645e-01
1.015000e+09 1.154504e-01 2.559911e-01 8.690158e-01 -2.775125e-01 8.690156e-01 -2.775125e-01 1.154612e-01 2.558962e-01
1.050000e+09 1.209051e-01 2.629720e-01 8.632824e-01 -2.850959e-01 8.632822e-01 -2.850959e-01 1.209147e-01 2.628745e-01
1.085000e+09 1.264637e-01 2.697985e-01 8.574430e-01 -2.925141e-01 8.574428e-01 -2.925141e-01 1.264720e-01 2.696985e-01
1.120000e+09 1.321206e-01 2.764700e-01 8.515037e-01 -2.997666e-01 8.515036e-01 -2.997666e-01 1.321276e-01 2.763675e-01
1.155000e+09 1.378701e-01 2.829860e-01 8.454706e-01 -3.068531e-01 8.454705e-01 -3.068531e-01 1.378759e-01 2.828812e-01
1.190000e+09 1.437068e-01 2.893464e-01 8.393496e-01 -3.137735e-01 8.393494e-01 -3.137735e-01 1.437113e-01 2.892392e-01
1.225000e+09 1.496254e-01 2.955511e-01 8.331464e-01 -3.205279e-01 8.331462e-01 -3.205280e-01 1.496286e-01 2.954417e-01
1.260000e+09 1.556207e-01 3.016004e-01 8.268666e-01 -3.271169e-01 8.268665e-01 -3.271169e-01 1.556226e-01 3.014887e-01
1.295000e+09 1.616875e-01 3.074947e-01 8.205158e-01 -3.335409e-01 8.205157e-01 -3.335409e-01 1.616881e-01 3.073808e-01
1.330000e+09 1.678211e-01 3.132345e-01 8.140992e-01 -3.398007e-01 8.140991e-01 -3.398008e-01 1.678204e-01 3.131184e-01
1.365000e+09 1.740165e-01 3.188206e-01 8.076219e-01 -3.458974e-01 8.076218e-01 -3.458974e-01 1.740145e-01 3.187024e-01
1.400000e+09 1.802692e-01 3.242538e-01 8.010890e-01 -3.518319e-01 8.010889e-01 -3.518319e-01 1.802659e-01 3.241335e-01
1.435000e+09 1.865747e-01 3.295351e-01 7.945052e-01 -3.576055e-01 7.945051e-01 -3.576056e-01 1.865701e-01 3.294129e-01
1.470000e+09 1.929286e-01 3.346658e-01 7.878752e-01 -3.632198e-01 7.878751e-01 -3.632198e-01 1.929227e-01 3.345416e-01
1.505000e+09 1.993268e-01 3.396470e-01 7.812035e-01 -3.686761e-01 7.812034e-01 -3.686761e-01 1.993196e-01 3.395209e-01
1.540000e+09 2.057652e-01 3.444802e-01 7.744943e-01 -3.739761e-01 7.744942e-01 -3.739761e-01 2.057568e-01 3.443522e-01
1.575000e+09 2.122399e-01 3.491667e-01 7.677517e-01 -3.791215e-01 7.677517e-01 -3.791215e-01 2.122303e-01 3.490369e-01
1.610000e+09 2.187473e-01 3.537081e-01 7.609798e-01 -3.841141e-01 7.609798e-01 -3.841142e-01 2.187364e-01 3.535765e-01
1.645000e+09 2.252838e-01 3.581061e-01 7.541824e-01 -3.889559e-01 7.541823e-01 -3.889560e-01 2.252716e-01 3.579726e-01
1.680000e+09 2.318459e-01 3.623622e-01 7.473629e-01 -3.936488e-01 7.473629e-01 -3.936488e-01 2.318324e-01 3.622270e-01
1.715000e+09 2.384303e-01 3.664782e-01 7.405250e-01 -3.981947e-01 7.405250e-01 -3.981947e-01 2.384156e-01 3.663413e-01
1.750000e+09 2.450338e-01 3.704558e-01 7.336719e-01 -4.025957e-01 7.336719e-01 -4.025958e-01 2.450180e-01 3.703173e-01
1.785000e+09 2.516536e-01 3.742970e-01 7.268068e-01 -4.068540e-01 7.268068e-01 -4.068540e-01 2.516365e-01 3.741568e-01
1.820000e+09 2.582866e-01 3.780034e-01 7.199327e-01 -4.109716e-01 7.199327e-01 -4.109717e-01 2.582683e-01 3.778617e-01
1.855000e+09 2.649301e-01 3.815770e-01 7.130525e-01 -4.149507e-01 7.130525e-01 -4.149507e-01 2.649107e-01 3.814337e-01
1.890000e+09 2.715816e-01 3.850197e-01 7.061689e-01 -4.187934e-01 7.061689e-01 -4.187935e-01 2.715610e-01 3.848748e-01
1.925000e+09 2.782384e-01 3.883332e-01 6.992845e-01 -4.225020e-01 6.992845e-01 -4.225020e-01 2.782167e-01 3.881868e-01
1.960000e+09 2.848983e-01 3.915197e-01 6.924018e-01 -4.260785e-01 6.924018e-01 -4.260786e-01 2.848754e-01 3.913718e-01
1.995000e+09 2.915588e-01 3.945809e-01 6.855230e-01 -4.295252e-01 6.855230e-01 -4.295253e-01 2.915348e-01 3.944315e-01
2.030000e+09 2.982179e-01 3.975187e-01 6.786505e-01 -4.328443e-01 6.786505e-01 -4.328444e-01 2.981928e-01 3.973679e-01
2.065000e+09 3.048735e-01 4.003351e-01 6.717863e-01 -4.360379e-01 6.717864e-01 -4.360380e-01 3.048473e-01 4.001828e-01
2.100000e+09 3.115236e-01 4.030320e-01 6.649325e-01 -4.391082e-01 6.649325e-01 -4.391083e-01 3.114963e-01 4.028783e-01
2.135000e+09 3.181664e-01 4.056112e-01 6.580908e-01 -4.420572e-01 6.580909e-01 -4.420573e-01 3.181380e-01 4.054561e-01
2.170000e+09 3.248000e-01 4.080746e-01 6.512632e-01 -4.448872e-01 6.512633e-01 -4.448873e-01 3.247706e-01 4.079181e-01
2.205000e+09 3.314227e-01 4.104241e-01 6.444513e-01 -4.476002e-01 6.444513e-01 -4.476003e-01 3.313923e-01 4.102662e-01
2.240000e+09 3.380330e-01 4.126615e-01 6.376567e-01 -4.501982e-01 6.376567e-01 -4.501984e-01 3.380016e-01 4.125023e-01
2.275000e+09 3.446293e-01 4.147886e-01 6.308809e-01 -4.526834e-01 6.308809e-01 -4.526836e-01 3.445969e-01 4.146281e-01
2.310000e+09 3.512102e-01 4.168073e-01 6.241254e-01 -4.550578e-01 6.241254e-01 -4.550579e-01 3.511768e-01 4.166454e-01
2.345000e+09 3.577742e-01 4.187193e-01 6.173914e-01 -4.573232e-01 6.173915e-01 -4.573234e-01 3.577399e-01 4.185561e-01
2.380000e+09 3.643201e-01 4.205263e-01 6.106804e-01 -4.594818e-01 6.106805e-01 -4.594820e-01 3.642848e-01 4.203618e-01
2.415000e+09 3.708465e-01 4.222301e-01 6.039935e-01 -4.615354e-01 6.039936e-01 -4.615355e-01 3.708103e-01 4.220643e-01
2.450000e+09 3.773523e-01 4.238325e-01 5.973319e-01 -4.634859e-01 5.973319e-01 -4.634861e-01 3.773152e-01 4.236653e-01
2.485000e+09 3.838364e-01 4.253350e-01 5.906966e-01 -4.653352e-01 5.906966e-01 -4.653354e-01 3.837983e-01 4.251665e-01
2.520000e+09 3.902976e-01 4.267393e-01 5.840886e-01 -4.670851e-01 5.840887e-01 -4.670853e-01 3.902586e-01 4.265696e-01
2.555000e+09 3.967349e-01 4.280471e-01 5.775090e-01 -4.687374e-01 5.775091e-01 -4.687376e-01 3.966951e-01 4.278761e-01
2.590000e+09 4.031473e-01 4.292599e-01 5.709587e-01 -4.702940e-01 5.709587e-01 -4.702941e-01 4.031066e-01 4.290876e-01
2.625000e+09 4.095340e-01 4.303794e-01 5.644384e-01 -4.717564e-01 5.644385e-01 -4.717566e-01 4.094924e-01 4.302058e-01
2.660000e+09 4.158939e-01 4.314071e-01 5.579491e-01 -4.731265e-01 5.579492e-01 -4.731266e-01 4.158515e-01 4.312322e-01
2.695000e+09 4.222263e-01 4.323445e-01 5.514915e-01 -4.744058e-01 5.514916e-01 -4.744060e-01 4.221830e-01 4.321683e-01
2.730000e+09 4.285303e-01 4.331931e-01 5.450663e-01 -4.755961e-01 5.450664e-01 -4.755963e-01 4.284862e-01 4.330157e-01
2.765000e+09 4.348051e-01 4.339543e-01 5.386743e-01 -4.766990e-01 5.386744e-01 -4.766991e-01 4.347602e-01 4.337757e-01
2.800000e+09 4.410500e-01 4.346298e-01 5.323161e-01 -4.777159e-01 5.323162e-01 -4.777161e-01 4.410044e-01 4.344498e-01
2.835000e+09 4.472643e-01 4.352208e-01 5.259923e-01 -4.786485e-01 5.259924e-01 -4.786487e-01 4.472179e-01 4.350396e-01
2.870000e+09 4.534473e-01 4.357287e-01 5.197035e-01 -4.794983e-01 5.197035e-01 -4.794985e-01 4.534002e-01 4.355462e-01
2.905000e+09 4.595984e-01 4.361550e-01 5.134502e-01 -4.802668e-01 5.134503e-01 -4.802670e-01 4.595505e-01 4.359713e-01
2.940000e+09 4.657169e-01 4.365011e-01 5.072330e-01 -4.809554e-01 5.072331e-01 -4.809556e-01 4.656682e-01 4.363160e-01
2.975000e+09 4.718022e-01 4.367681e-01 5.010525e-01 -4.815656e-01 5.010526e-01 -4.815658e-01 4.717528e-01 4.365818e-01
3.010000e+09 4.778538e-01 4.369575e-01 4.949090e-01 -4.820987e-01 4.949091e-01 -4.820989e-01 4.778037e-01 4.367699e-01
3.045000e+09 4.838711e-01 4.370706e-01 4.888030e-01 -4.825562e-01 4.888031e-01 -4.825564e-01 4.838203e-01 4.368817e-01
3.080000e+09 4.898536e-01 4.371086e-01 4.827350e-01 -4.829395e-01 4.827350e-01 -4.829397e-01 4.898021e-01 4.369184e-01
3.115000e+09 4.958008e-01 4.370728e-01 4.767053e-01 -4.832497e-01 4.767054e-01 -4.832499e-01 4.957486e-01 4.368812e-01
3.150000e+09 5.017122e-01 4.369643e-01 4.707143e-01 -4.834883e-01 4.707144e-01 -4.834885e-01 5.016593e-01 4.367715e-01
3.185000e+09 5.075874e-01 4.367845e-01 4.647625e-01 -4.836565e-01 4.647626e-01 -4.836567e-01 5.075338e-01 4.365904e-01
3.220000e+09 5.134258e-01 4.365346e-01 4.588501e-01 -4.837556e-01 4.588502e-01 -4.837558e-01 5.133715e-01 4.363391e-01
3.255000e+09 5.192272e-01 4.362156e-01 4.529775e-01 -4.837868e-01 4.529776e-01 -4.837870e-01 5.191722e-01 4.360188e-01
3.290000e+09 5.249910e-01 4.358288e-01 4.471450e-01 -4.837514e-01 4.471451e-01 -4.837516e-01 5.249354e-01 4.356307e-01
3.325000e+09 5.307169e-01 4.353753e-01 4.413528e-01 -4.836505e-01 4.413529e-01 -4.836507e-01 5.306606e-01 4.351758e-01
3.360000e+09 5.364044e-01 4.348563e-01 4.356014e-01 -4.834853e-01 4.356015e-01 -4.834855e-01 5.363476e-01 4.346554e-01
3.395000e+09 5.420534e-01 4.342728e-01 4.298909e-01 -4.832570e-01 4.298910e-01 -4.832572e-01 5.419959e-01 4.340706e-01
3.430000e+09 5.476633e-01 4.336260e-01 4.242215e-01 -4.829667e-01 4.242216e-01 -4.829670e-01 5.476052e-01 4.334224e-01
3.465000e+09 5.532340e-01 4.329169e-01 4.185936e-01 -4.826156e-01 4.185937e-01 -4.826158e-01 5.531752e-01 4.327120e-01
3.500000e+09 5.587649e-01 4.321467e-01 4.130074e-01 -4.822047e-01 4.130075e-01 -4.822049e-01 5.587055e-01 4.319404e-01
3.535000e+09 5.642560e-01 4.313164e-01 4.074630e-01 -4.817352e-01 4.074631e-01 -4.817354e-01 5.641960e-01 4.311087e-01
3.570000e+09 5.697068e-01 4.304270e-01 4.019608e-01 -4.812080e-01 4.019608e-01 -4.812083e-01 5.696461e-01 4.302180e-01
3.605000e+09 5.751171e-01 4.294796e-01 3.965007e-01 -4.806243e-01 3.965008e-01 -4.806246e-01 5.750558e-01 4.292692e-01
3.640000e+09 5.804866e-01 4.284752e-01 3.910832e-01 -4.799852e-01 3.910833e-01 -4.799854e-01 5.804247e-01 4.282634e-01
3.675000e+09 5.858151e-01 4.274148e-01 3.857082e-01 -4.792916e-01 3.857083e-01 -4.792918e-01 5.857526e-01 4.272016e-01
3.710000e+09 5.911023e-01 4.262995e-01 3.803760e-01 -4.785445e-01 3.803761e-01 -4.785447e-01 5.910392e-01 4.260848e-01
3.745000e+09 5.963480e-01 4.251301e-01 3.750868e-01 -4.777450e-01 3.750869e-01 -4.777452e-01 5.962843e-01 4.249140e-01
3.780000e+09 6.015520e-01 4.239077e-01 3.698406e-01 -4.768940e-01 3.698407e-01 -4.768943e-01 6.014878e-01 4.236902e-01
3.815000e+09 6.067141e-01 4.226333e-01 3.646376e-01 -4.759926e-01 3.646377e-01 -4.759928e-01 6.066493e-01 4.224143e-01
3.850000e+09 6.118341e-01 4.213078e-01 3.594779e-01 -4.750416e-01 3.594780e-01 -4.750419e-01 6.117686e-01 4.210874e-01
3.885000e+09 6.169118e-01 4.199322e-01 3.543617e-01 -4.740421e-01 3.543618e-01 -4.740423e-01 6.168457e-01 4.197103e-01
3.920000e+09 6.219470e-01 4.185074e-01 3.492889e-01 -4.729949e-01 3.492890e-01 -4.729952e-01 6.218803e-01 4.182841e-01
3.955000e+09 6.269395e-01 4.170344e-01 3.442598e-01 -4.719011e-01 3.442599e-01 -4.719013e-01 6.268723e-01 4.168095e-01
3.990000e+09 6.318893e-01 4.155140e-01 3.392744e-01 -4.707615e-01 3.392745e-01 -4.707617e-01 6.318215e-01 4.152876e-01
4.025000e+09 6.367962e-01 4.139472e-01 3.343328e-01 -4.695770e-01 3.343329e-01 -4.695772e-01 6.367278e-01 4.137193e-01
4.060000e+09 6.416600e-01 4.123348e-01 3.294350e-01 -4.683485e-01 3.294351e-01 -4.683487e-01 6.415910e-01 4.121055e-01
4.095000e+09 6.464806e-01 4.106779e-01 3.245811e-01 -4.670769e-01 3.245812e-01 -4.670772e-01 6.464110e-01 4.104471e-01
4.130000e+09 6.512579e-01 4.089772e-01 3.197712e-01 -4.657631e-01 3.197713e-01 -4.657634e-01 6.511877e-01 4.087449e-01
4.165000e+09 6.559918e-01 4.072337e-01 3.150053e-01 -4.644080e-01 3.150053e-01 -4.644082e-01 6.559210e-01 4.069998e-01
4.200000e+09 6.606822e-01 4.054482e-01 3.102834e-01 -4.630124e-01 3.102834e-01 -4.630126e-01 6.606108e-01 4.052128e-01
4.235000e+09 6.653290e-01 4.036215e-01 3.056055e-01 -4.615771e-01 3.056056e-01 -4.615774e-01 6.652571e-01 4.033846e-01
4.270000e+09 6.699322e-01 4.017547e-01 3.009717e-01 -4.601030e-01 3.009718e-01 -4.601033e-01 6.698597e-01 4.015162e-01
4.305000e+09 6.744917e-01 3.998484e-01 2.963821e-01 -4.585910e-01 2.963821e-01 -4.585912e-01 6.744185e-01 3.996083e-01
4.340000e+09 6.790074e-01 3.979035e-01 2.918365e-01 -4.570418e-01 2.918365e-01 -4.570420e-01 6.789336e-01 3.976619e-01
4.375000e+09 6.834793e-01 3.959209e-01 2.873350e-01 -4.554562e-01 2.873350e-01 -4.554565e-01 6.834049e-01 3.956778e-01
4.410000e+09 6.879073e-01 3.939014e-01 2.828775e-01 -4.538352e-01 2.828776e-01 -4.538354e-01 6.878324e-01 3.936567e-01
4.445000e+09 6.922915e-01 3.918457e-01 2.784641e-01 -4.521793e-01 2.784642e-01 -4.521796e-01 6.922159e-01 3.915995e-01
4.480000e+09 6.966317e-01 3.897548e-01 2.740948e-01 -4.504895e-01 2.740948e-01 -4.504898e-01 6.965556e-01 3.895070e-01
4.515000e+09 7.009281e-01 3.876295e-01 2.697694e-01 -4.487666e-01 2.697695e-01 -4.487669e-01 7.008513e-01 3.873800e-01
4.550000e+09 7.051805e-01 3.854704e-01 2.654880e-01 -4.470112e-01 2.654881e-01 -4.470115e-01 7.051031e-01 3.852194e-01
4.585000e+09 7.093891e-01 3.832784e-01 2.612505e-01 -4.452242e-01 2.612505e-01 -4.452245e-01 7.093111e-01 3.830258e-01
4.620000e+09 7.135537e-01 3.810543e-01 2.570568e-01 -4.434063e-01 2.570569e-01 -4.434066e-01 7.134751e-01 3.808001e-01
4.655000e+09 7.176746e-01 3.787988e-01 2.529069e-01 -4.415582e-01 2.529070e-01 -4.415585e-01 7.175953e-01 3.785430e-01
4.690000e+09 7.217515e-01 3.765128e-01 2.488007e-01 -4.396808e-01 2.488008e-01 -4.396811e-01 7.216716e-01 3.762554e-01
4.725000e+09 7.257848e-01 3.741970e-01 2.447382e-01 -4.377747e-01 2.447382e-01 -4.377749e-01 7.257042e-01 3.739379e-01
4.760000e+09 7.297742e-01 3.718520e-01 2.407192e-01 -4.358406e-01 2.407192e-01 -4.358408e-01 7.296930e-01 3.715914e-01
4.795000e+09 7.337201e-01 3.694787e-01 2.367436e-01 -4.338792e-01 2.367437e-01 -4.338795e-01 7.336382e-01 3.692165e-01
4.830000e+09 7.376223e-01 3.670779e-01 2.328114e-01 -4.318914e-01 2.328115e-01 -4.318916e-01 7.375398e-01 3.668140e-01
4.865000e+09 7.414809e-01 3.646501e-01 2.289225e-01 -4.298777e-01 2.289225e-01 -4.298779e-01 7.413978e-01 3.643846e-01
4.900000e+09 7.452962e-01 3.621963e-01 2.250767e-01 -4.278388e-01 2.250767e-01 -4.278391e-01 7.452124e-01 3.619291e-01
4.935000e+09 7.490681e-01 3.597169e-01 2.212739e-01 -4.257755e-01 2.212740e-01 -4.257758e-01 7.489836e-01 3.594482e-01
4.970000e+09 7.527967e-01 3.572129e-01 2.175140e-01 -4.236884e-01 2.175141e-01 -4.236887e-01 7.527116e-01 3.569425e-01
5.005000e+09 7.564822e-01 3.546848e-01 2.137969e-01 -4.215782e-01 2.137970e-01 -4.215785e-01 7.563964e-01 3.544127e-01
5.040000e+09 7.601247e-01 3.521333e-01 2.101224e-01 -4.194456e-01 2.101225e-01 -4.194459e-01 7.600382e-01 3.518596e-01
5.075000e+09 7.637242e-01 3.495592e-01 2.064905e-01 -4.172911e-01 2.064905e-01 -4.172914e-01 7.636371e-01 3.492839e-01
5.110000e+09 7.672810e-01 3.469632e-01 2.029008e-01 -4.151155e-01 2.029009e-01 -4.151158e-01 7.671932e-01 3.466862e-01
5.145000e+09 7.707952e-01 3.443458e-01 1.993533e-01 -4.129194e-01 1.993534e-01 -4.129197e-01 7.707066e-01 3.440671e-01
5.180000e+09 7.742668e-01 3.417077e-01 1.958479e-01 -4.107034e-01 1.958479e-01 -4.107037e-01 7.741775e-01 3.414274e-01
5.215000e+09 7.776961e-01 3.390496e-01 1.923843e-01 -4.084681e-01 1.923844e-01 -4.084684e-01 7.776061e-01 3.387677e-01
5.250000e+09 7.810832e-01 3.363722e-01 1.889624e-01 -4.062142e-01 1.889624e-01 -4.062145e-01 7.809925e-01 3.360886e-01
5.285000e+09 7.844283e-01 3.336760e-01 1.855820e-01 -4.039422e-01 1.855820e-01 -4.039425e-01 7.843369e-01 3.333908e-01
5.320000e+09 7.877315e-01 3.309617e-01 1.822429e-01 -4.016528e-01 1.822429e-01 -4.016531e-01 7.876394e-01 3.306748e-01
5.355000e+09 7.909931e-01 3.282300e-01 1.789449e-01 -3.993465e-01 1.789450e-01 -3.993468e-01 7.909002e-01 3.279414e-01
5.390000e+09 7.942132e-01 3.254814e-01 1.756879e-01 -3.970240e-01 1.756879e-01 -3.970242e-01 7.941195e-01 3.251911e-01
5.425000e+09 7.973920e-01 3.227165e-01 1.724716e-01 -3.946857e-01 1.724716e-01 -3.946860e-01 7.972976e-01 3.224246e-01
5.460000e+09 8.005296e-01 3.199359e-01 1.692958e-01 -3.923324e-01 1.692958e-01 -3.923326e-01 8.004345e-01 3.196424e-01
5.495000e+09 8.036264e-01 3.171402e-01 1.661603e-01 -3.899644e-01 1.661604e-01 -3.899647e-01 8.035305e-01 3.168450e-01
5.530000e+09 8.066825e-01 3.143301e-01 1.630650e-01 -3.875825e-01 1.630650e-01 -3.875827e-01 8.065858e-01 3.140332e-01
5.565000e+09 8.096981e-01 3.115060e-01 1.600095e-01 -3.851870e-01 1.600095e-01 -3.851873e-01 8.096007e-01 3.112075e-01
5.600000e+09 8.126735e-01 3.086685e-01 1.569936e-01 -3.827787e-01 1.569937e-01 -3.827790e-01 8.125752e-01 3.083684e-01
5.635000e+09 8.156088e-01 3.058183e-01 1.540172e-01 -3.803579e-01 1.540172e-01 -3.803582e-01 8.155098e-01 3.055164e-01
5.670000e+09 8.185043e-01 3.029557e-01 1.510800e-01 -3.779253e-01 1.510800e-01 -3.779255e-01 8.184045e-01 3.026522e-01
5.705000e+09 8.213603e-01 3.000815e-01 1.481817e-01 -3.754813e-01 1.481817e-01 -3.754815e-01 8.212597e-01 2.997763e-01
5.740000e+09 8.241770e-01 2.971960e-01 1.453221e-01 -3.730264e-01 1.453221e-01 -3.730266e-01 8.240755e-01 2.968892e-01
5.775000e+09 8.269546e-01 2.942998e-01 1.425009e-01 -3.705611e-01 1.425010e-01 -3.705614e-01 8.268523e-01 2.939914e-01
5.810000e+09 8.296934e-01 2.913935e-01 1.397180e-01 -3.680860e-01 1.397180e-01 -3.680862e-01 8.295903e-01 2.910834e-01
5.845000e+09 8.323936e-01 2.884776e-01 1.369730e-01 -3.656014e-01 1.369731e-01 -3.656017e-01 8.322896e-01 2.881658e-01
5.880000e+09 8.350555e-01 2.855524e-01 1.342657e-01 -3.631080e-01 1.342658e-01 -3.631083e-01 8.349507e-01 2.852390e-01
5.915000e+09 8.376794e-01 2.826186e-01 1.315958e-01 -3.606061e-01 1.315959e-01 -3.606063e-01 8.375737e-01 2.823036e-01
5.950000e+09 8.402655e-01 2.796766e-01 1.289631e-01 -3.580962e-01 1.289632e-01 -3.580964e-01 8.401590e-01 2.793599e-01
5.985000e+09 8.428141e-01 2.767269e-01 1.263673e-01 -3.555787e-01 1.263673e-01 -3.555790e-01 8.427068e-01 2.764086e-01
6.020000e+09 8.453255e-01 2.737699e-01 1.238081e-01 -3.530541e-01 1.238081e-01 -3.530544e-01 8.452173e-01 2.734499e-01
6.055000e+09 8.477999e-01 2.708061e-01 1.212852e-01 -3.505229e-01 1.212852e-01 -3.505231e-01 8.476909e-01 2.704845e-01
6.090000e+09 8.502378e-01 2.678360e-01 1.187983e-01 -3.479854e-01 1.187984e-01 -3.479856e-01 8.501278e-01 2.675127e-01
6.125000e+09 8.526392e-01 2.648599e-01 1.163473e-01 -3.454420e-01 1.163473e-01 -3.454423e-01 8.525284e-01 2.645350e-01
6.160000e+09 8.550046e-01 2.618783e-01 1.139317e-01 -3.428933e-01 1.139318e-01 -3.428936e-01 8.548929e-01 2.615519e-01
6.195000e+09 8.573342e-01 2.588917e-01 1.115513e-01 -3.403395e-01 1.115514e-01 -3.403398e-01 8.572216e-01 2.585636e-01
6.230000e+09 8.596284e-01 2.559004e-01 1.092059e-01 -3.377811e-01 1.092059e-01 -3.377814e-01 8.595148e-01 2.555707e-01
6.265000e+09 8.618874e-01 2.529049e-01 1.068950e-01 -3.352185e-01 1.068951e-01 -3.352188e-01 8.617729e-01 2.525735e-01
6.300000e+09 8.641115e-01 2.499055e-01 1.046185e-01 -3.326520e-01 1.046185e-01 -3.326523e-01 8.639961e-01 2.495725e-01
6.335000e+09 8.663010e-01 2.469026e-01 1.023760e-01 -3.300821e-01 1.023760e-01 -3.300823e-01 8.661847e-01 2.465680e-01
6.370000e+09 8.684563e-01 2.438966e-01 1.001672e-01 -3.275090e-01 1.001672e-01 -3.275092e-01 8.683390e-01 2.435605e-01
6.405000e+09 8.705777e-01 2.408879e-01 9.799177e-02 -3.249331e-01 9.799182e-02 -3.249334e-01 8.704594e-01 2.405502e-01
6.440000e+09 8.726654e-01 2.378769e-01 9.584950e-02 -3.223548e-01 9.584955e-02 -3.223551e-01 8.725462e-01 2.375376e-01
6.475000e+09 8.747198e-01 2.348638e-01 9.374003e-02 -3.197745e-01 9.374008e-02 -3.197747e-01 8.745997e-01 2.345229e-01
6.510000e+09 8.767413e-01 2.318491e-01 9.166306e-02 -3.171923e-01 9.166311e-02 -3.171926e-01 8.766201e-01 2.315066e-01
6.545000e+09 8.787300e-01 2.288331e-01 8.961828e-02 -3.146088e-01 8.961833e-02 -3.146091e-01 8.786079e-01 2.284890e-01
6.580000e+09 8.806864e-01 2.258161e-01 8.760538e-02 -3.120242e-01 8.760543e-02 -3.120244e-01 8.805633e-01 2.254704e-01
6.615000e+09 8.826108e-01 2.227984e-01 8.562405e-02 -3.094387e-01 8.562410e-02 -3.094390e-01 8.824867e-01 2.224511e-01
6.650000e+09 8.845035e-01 2.197803e-01 8.367397e-02 -3.068528e-01 8.367402e-02 -3.068531e-01 8.843784e-01 2.194315e-01
6.685000e+09 8.863648e-01 2.167622e-01 8.175483e-02 -3.042667e-01 8.175488e-02 -3.042669e-01 8.862387e-01 2.164118e-01
6.720000e+09 8.881950e-01 2.137443e-01 7.986632e-02 -3.016806e-01 7.986637e-02 -3.016809e-01 8.880679e-01 2.133924e-01
6.755000e+09 8.899946e-01 2.107269e-01 7.800812e-02 -2.990949e-01 7.800817e-02 -2.990952e-01 8.898664e-01 2.103735e-01
6.790000e+09 8.917637e-01 2.077103e-01 7.617992e-02 -2.965098e-01 7.617997e-02 -2.965101e-01 8.916345e-01 2.073554e-01
6.825000e+09 8.935027e-01 2.046949e-01 7.438139e-02 -2.939257e-01 7.438145e-02 -2.939259e-01 8.933726e-01 2.043383e-01
6.860000e+09 8.952121e-01 2.016807e-01 7.261223e-02 -2.913427e-01 7.261229e-02 -2.913429e-01 8.950808e-01 2.013227e-01
6.895000e+09 8.968920e-01 1.986682e-01 7.087211e-02 -2.887610e-01 7.087217e-02 -2.887613e-01 8.967597e-01 1.983086e-01
6.930000e+09 8.985429e-01 1.956575e-01 6.916073e-02 -2.861811e-01 6.916078e-02 -2.861813e-01 8.984095e-01 1.952964e-01
6.965000e+09 9.001650e-01 1.926488e-01 6.747775e-02 -2.836030e-01 6.747781e-02 -2.836032e-01 9.000305e-01 1.922862e-01
7.000000e+09 9.017586e-01 1.896425e-01 6.582287e-02 -2.810270e-01 6.582293e-02 -2.810272e-01 9.016232e-01 1.892784e-01
7.035000e+09 9.033242e-01 1.866388e-01 6.419576e-02 -2.784533e-01 6.419582e-02 -2.784536e-01 9.031877e-01 1.862732e-01
7.070000e+09 9.048621e-01 1.836378e-01 6.259612e-02 -2.758822e-01 6.259618e-02 -2.758824e-01 9.047244e-01 1.832707e-01
7.105000e+09 9.063725e-01 1.806397e-01 6.102363e-02 -2.733138e-01 6.102369e-02 -2.733140e-01 9.062338e-01 1.802711e-01
7.140000e+09 9.078559e-01 1.776448e-01 5.947796e-02 -2.707483e-01 5.947802e-02 -2.707486e-01 9.077160e-01 1.772748e-01
7.175000e+09 9.093124e-01 1.746533e-01 5.795881e-02 -2.681860e-01 5.795887e-02 -2.681863e-01 9.091715e-01 1.742818e-01
7.210000e+09 9.107425e-01 1.716653e-01 5.646586e-02 -2.656270e-01 5.646592e-02 -2.656273e-01 9.106005e-01 1.712923e-01
7.245000e+09 9.121465e-01 1.686811e-01 5.499879e-02 -2.630715e-01 5.499886e-02 -2.630718e-01 9.120034e-01 1.683066e-01
7.280000e+09 9.135248e-01 1.657007e-01 5.355731e-02 -2.605196e-01 5.355738e-02 -2.605199e-01 9.133804e-01 1.653248e-01
7.315000e+09 9.148775e-01 1.627244e-01 5.214109e-02 -2.579716e-01 5.214116e-02 -2.579719e-01 9.147321e-01 1.623471e-01
7.350000e+09 9.162051e-01 1.597524e-01 5.074982e-02 -2.554276e-01 5.074989e-02 -2.554279e-01 9.160585e-01 1.593735e-01
7.385000e+09 9.175079e-01 1.567846e-01 4.938321e-02 -2.528877e-01 4.938327e-02 -2.528879e-01 9.173602e-01 1.564044e-01
7.420000e+09 9.187862e-01 1.538214e-01 4.804093e-02 -2.503521e-01 4.804100e-02 -2.503523e-01 9.186373e-01 1.534398e-01
7.455000e+09 9.200403e-01 1.508629e-01 4.672268e-02 -2.478209e-01 4.672276e-02 -2.478211e-01 9.198903e-01 1.504798e-01
7.490000e+09 9.212706e-01 1.479091e-01 4.542817e-02 -2.452942e-01 4.542825e-02 -2.452945e-01 9.211194e-01 1.475246e-01
7.525000e+09 9.224773e-01 1.449602e-01 4.415709e-02 -2.427722e-01 4.415716e-02 -2.427725e-01 9.223249e-01 1.445743e-01
7.560000e+09 9.236608e-01 1.420163e-01 4.290914e-02 -2.402550e-01 4.290921e-02 -2.402553e-01 9.235072e-01 1.416290e-01
7.595000e+09 9.248213e-01 1.390776e-01 4.168401e-02 -2.377427e-01 4.168409e-02 -2.377430e-01 9.246666e-01 1.386889e-01
7.630000e+09 9.259592e-01 1.361440e-01 4.048142e-02 -2.352355e-01 4.048150e-02 -2.352357e-01 9.258033e-01 1.357539e-01
7.665000e+09 9.270748e-01 1.332158e-01 3.930107e-02 -2.327333e-01 3.930115e-02 -2.327336e-01 9.269177e-01 1.328243e-01
7.700000e+09 9.281685e-01 1.302930e-01 3.814267e-02 -2.302363e-01 3.814275e-02 -2.302366e-01 9.280101e-01 1.299001e-01
7.735000e+09 9.292404e-01 1.273756e-01 3.700593e-02 -2.277446e-01 3.700601e-02 -2.277449e-01 9.290809e-01 1.269814e-01
7.770000e+09 9.302909e-01 1.244638e-01 3.589056e-02 -2.252583e-01 3.589064e-02 -2.252586e-01 9.301301e-01 1.240683e-01
7.805000e+09 9.313203e-01 1.215577e-01 3.479628e-02 -2.227775e-01 3.479636e-02 -2.227778e-01 9.311583e-01 1.211608e-01
7.840000e+09 9.323288e-01 1.186572e-01 3.372280e-02 -2.203022e-01 3.372289e-02 -2.203024e-01 9.321657e-01 1.182590e-01
7.875000e+09 9.333169e-01 1.157625e-01 3.266985e-02 -2.178324e-01 3.266994e-02 -2.178327e-01 9.331525e-01 1.153630e-01
7.910000e+09 9.342847e-01 1.128736e-01 3.163715e-02 -2.153683e-01 3.163724e-02 -2.153686e-01 9.341191e-01 1.124728e-01
7.945000e+09 9.352326e-01 1.099906e-01 3.062443e-02 -2.129099e-01 3.062451e-02 -2.129102e-01 9.350657e-01 1.095884e-01
7.980000e+09 9.361607e-01 1.071134e-01 2.963141e-02 -2.104573e-01 2.963149e-02 -2.104575e-01 9.359926e-01 1.067100e-01
8.015000e+09 9.370695e-01 1.042422e-01 2.865783e-02 -2.080104e-01 2.865791e-02 -2.080107e-01 9.369001e-01 1.038374e-01
8.050000e+09 9.379592e-01 1.013770e-01 2.770342e-02 -2.055694e-01 2.770351e-02 -2.055697e-01 9.377885e-01 1.009709e-01
8.085000e+09 9.388300e-01 9.851766e-02 2.676792e-02 -2.031342e-01 2.676801e-02 -2.031345e-01 9.386581e-01 9.811029e-02
8.120000e+09 9.396822e-01 9.566437e-02 2.585108e-02 -2.007050e-01 2.585117e-02 -2.007052e-01 9.395090e-01 9.525572e-02
8.155000e+09 9.405161e-01 9.281709e-02 2.495264e-02 -1.982816e-01 2.495273e-02 -1.982819e-01 9.403417e-01 9.240716e-02
8.190000e+09 9.413319e-01 8.997583e-02 2.407235e-02 -1.958642e-01 2.407244e-02 -1.958645e-01 9.411562e-01 8.956464e-02
8.225000e+09 9.421300e-01 8.714059e-02 2.320996e-02 -1.934527e-01 2.321005e-02 -1.934530e-01 9.419530e-01 8.672815e-02
8.260000e+09 9.429104e-01 8.431137e-02 2.236522e-02 -1.910472e-01 2.236532e-02 -1.910475e-01 9.427321e-01 8.389768e-02
8.295000e+09 9.436736e-01 8.148817e-02 2.153790e-02 -1.886477e-01 2.153800e-02 -1.886480e-01 9.434940e-01 8.107324e-02
8.330000e+09 9.444197e-01 7.867097e-02 2.072776e-02 -1.862541e-01 2.072786e-02 -1.862544e-01 9.442388e-01 7.825481e-02
8.365000e+09 9.451490e-01 7.585977e-02 1.993457e-02 -1.838665e-01 1.993467e-02 -1.838668e-01 9.449668e-01 7.544238e-02
8.400000e+09 9.458616e-01 7.305453e-02 1.915810e-02 -1.814848e-01 1.915820e-02 -1.814851e-01 9.456781e-01 7.263592e-02
8.435000e+09 9.465579e-01 7.025523e-02 1.839812e-02 -1.791091e-01 1.839822e-02 -1.791094e-01 9.463731e-01 6.983541e-02
8.470000e+09 9.472381e-01 6.746185e-02 1.765441e-02 -1.767393e-01 1.765451e-02 -1.767396e-01 9.470520e-01 6.704083e-02
8.505000e+09 9.479024e-01 6.467436e-02 1.692675e-02 -1.743754e-01 1.692686e-02 -1.743757e-01 9.477149e-01 6.425214e-02
8.540000e+09 9.485510e-01 6.189271e-02 1.621494e-02 -1.720174e-01 1.621504e-02 -1.720177e-01 9.483622e-01 6.146931e-02
8.575000e+09 9.491840e-01 5.911687e-02 1.551876e-02 -1.696653e-01 1.551886e-02 -1.696656e-01 9.489939e-01 5.869229e-02
8.610000e+09 9.498019e-01 5.634680e-02 1.483800e-02 -1.673189e-01 1.483811e-02 -1.673193e-01 9.496104e-01 5.592104e-02
8.645000e+09 9.504046e-01 5.358244e-02 1.417248e-02 -1.649784e-01 1.417259e-02 -1.649787e-01 9.502118e-01 5.315551e-02
8.680000e+09 9.509925e-01 5.082374e-02 1.352199e-02 -1.626436e-01 1.352210e-02 -1.626439e-01 9.507983e-01 5.039566e-02
8.715000e+09 9.515657e-01 4.807066e-02 1.288634e-02 -1.603146e-01 1.288645e-02 -1.603149e-01 9.513702e-01 4.764143e-02
8.750000e+09 9.521243e-01 4.532313e-02 1.226534e-02 -1.579912e-01 1.226546e-02 -1.579915e-01 9.519275e-01 4.489275e-02
8.785000e+09 9.526687e-01 4.258109e-02 1.165882e-02 -1.556734e-01 1.165893e-02 -1.556737e-01 9.524706e-01 4.214958e-02
8.820000e+09 9.531990e-01 3.984449e-02 1.106658e-02 -1.533612e-01 1.106670e-02 -1.533615e-01 9.529995e-01 3.941185e-02
8.855000e+09 9.537153e-01 3.711325e-02 1.048847e-02 -1.510545e-01 1.048859e-02 -1.510548e-01 9.535144e-01 3.667949e-02
8.890000e+09 9.542178e-01 3.438731e-02 9.924306e-03 -1.487533e-01 9.924425e-03 -1.487536e-01 9.540156e-01 3.395243e-02
8.925000e+09 9.547067e-01 3.166659e-02 9.373930e-03 -1.464575e-01 9.374050e-03 -1.464578e-01 9.545031e-01 3.123061e-02
8.960000e+09 9.551821e-01 2.895102e-02 8.837181e-03 -1.441670e-01 8.837302e-03 -1.441674e-01 9.549771e-01 2.851394e-02
8.995000e+09 9.556443e-01 2.624052e-02 8.313903e-03 -1.418819e-01 8.314026e-03 -1.418822e-01 9.554379e-01 2.580235e-02
9.030000e+09 9.560932e-01 2.353503e-02 7.803948e-03 -1.396019e-01 7.804071e-03 -1.396023e-01 9.558854e-01 2.309577e-02
9.065000e+09 9.565292e-01 2.083445e-02 7.307169e-03 -1.373272e-01 7.307294e-03 -1.373275e-01 9.563200e-01 2.039412e-02
9.100000e+09 9.569522e-01 1.813871e-02 6.823427e-03 -1.350575e-01 6.823552e-03 -1.350578e-01 9.567417e-01 1.769731e-02
9.135000e+09 9.573625e-01 1.544773e-02 6.352585e-03 -1.327928e-01 6.352711e-03 -1.327931e-01 9.571506e-01 1.500526e-02
9.170000e+09 9.577602e-01 1.276141e-02 5.894512e-03 -1.305331e-01 5.894640e-03 -1.305334e-01 9.575469e-01 1.231789e-02
9.205000e+09 9.581454e-01 1.007967e-02 5.449084e-03 -1.282782e-01 5.449213e-03 -1.282786e-01 9.579306e-01 9.635102e-03
9.240000e+09 9.585182e-01 7.402428e-03 5.016178e-03 -1.260282e-01 5.016308e-03 -1.260285e-01 9.583020e-01 6.956820e-03
9.275000e+09 9.588787e-01 4.729593e-03 4.595679e-03 -1.237829e-01 4.595810e-03 -1.237832e-01 9.586611e-01 4.282951e-03
9.310000e+09 9.592271e-01 2.061075e-03 4.187475e-03 -1.215422e-01 4.187607e-03 -1.215426e-01 9.590081e-01 1.613407e-03
9.345000e+09 9.595633e-01 -6.032158e-04 3.791460e-03 -1.193061e-01 3.791593e-03 -1.193065e-01 9.593429e-01 -1.051903e-03
9.380000e+09 9.598876e-01 -3.263370e-03 3.407532e-03 -1.170745e-01 3.407667e-03 -1.170749e-01 9.596658e-01 -3.713069e-03
9.415000e+09 9.602001e-01 -5.919479e-03 3.035597e-03 -1.148474e-01 3.035732e-03 -1.148477e-01 9.599768e-01 -6.370183e-03
9.450000e+09 9.605007e-01 -8.571634e-03 2.675560e-03 -1.126245e-01 2.675697e-03 -1.126249e-01 9.602760e-01 -9.023337e-03
9.485000e+09 9.607896e-01 -1.121993e-02 2.327338e-03 -1.104059e-01 2.327476e-03 -1.104063e-01 9.605635e-01 -1.167262e-02
9.520000e+09 9.610668e-01 -1.386445e-02 1.990847e-03 -1.081915e-01 1.990986e-03 -1.081919e-01 9.608393e-01 -1.431813e-02
9.555000e+09 9.613325e-01 -1.650530e-02 1.666011e-03 -1.059812e-01 1.666151e-03 -1.059816e-01 9.611035e-01 -1.695995e-02
9.590000e+09 9.615866e-01 -1.914255e-02 1.352758e-03 -1.037750e-01 1.352899e-03 -1.037754e-01 9.613562e-01 -1.959818e-02
9.625000e+09 9.618293e-01 -2.177631e-02 1.051022e-03 -1.015726e-01 1.051164e-03 -1.015730e-01 9.615974e-01 -2.223290e-02
9.660000e+09 9.620605e-01 -2.440667e-02 7.607400e-04 -9.937415e-02 7.608833e-04 -9.937455e-02 9.618272e-01 -2.486421e-02
9.695000e+09 9.622804e-01 -2.703370e-02 4.818556e-04 -9.717945e-02 4.820000e-04 -9.717985e-02 9.620457e-01 -2.749219e-02
9.730000e+09 9.624889e-01 -2.965751e-02 2.143163e-04 -9.498845e-02 2.144618e-04 -9.498885e-02 9.622528e-01 -3.011695e-02
9.765000e+09 9.626862e-01 -3.227818e-02 -4.192527e-05 -9.280107e-02 -4.177863e-05 -9.280148e-02 9.624486e-01 -3.273855e-02
9.800000e+09 9.628722e-01 -3.489580e-02 -2.869118e-04 -9.061724e-02 -2.867641e-04 -9.061766e-02 9.626331e-01 -3.535709e-02
9.835000e+09 9.630469e-01 -3.751044e-02 -5.206812e-04 -8.843688e-02 -5.205323e-04 -8.843730e-02 9.628064e-01 -3.797265e-02
9.870000e+09 9.632105e-01 -4.012220e-02 -7.432665e-04 -8.625992e-02 -7.431166e-04 -8.626034e-02 9.629685e-01 -4.058532e-02
9.905000e+09 9.633628e-01 -4.273115e-02 -9.546965e-04 -8.408628e-02 -9.545455e-04 -8.408670e-02 9.631194e-01 -4.319518e-02
9.940000e+09 9.635040e-01 -4.533738e-02 -1.154995e-03 -8.191588e-02 -1.154843e-03 -8.191632e-02 9.632591e-01 -4.580231e-02
9.975000e+09 9.636339e-01 -4.794096e-02 -1.344181e-03 -7.974867e-02 -1.344028e-03 -7.974911e-02 9.633876e-01 -4.840678e-02
1.001000e+10 9.637527e-01 -5.054196e-02 -1.522269e-03 -7.758457e-02 -1.522115e-03 -7.758501e-02 9.635049e-01 -5.100868e-02
1.004500e+10 9.638603e-01 -5.314047e-02 -1.689271e-03 -7.542351e-02 -1.689115e-03 -7.542395e-02 9.636110e-01 -5.360806e-02
1.008000e+10 9.639566e-01 -5.573655e-02 -1.845190e-03 -7.326542e-02 -1.845034e-03 -7.326587e-02 9.637059e-01 -5.620501e-02
1.011500e+10 9.640418e-01 -5.833027e-02 -1.990030e-03 -7.111025e-02 -1.989873e-03 -7.111071e-02 9.637896e-01 -5.879960e-02
1.015000e+10 9.641157e-01 -6.092170e-02 -2.123788e-03 -6.895794e-02 -2.123629e-03 -6.895840e-02 9.638620e-01 -6.139188e-02
1.018500e+10 9.641784e-01 -6.351089e-02 -2.246455e-03 -6.680842e-02 -2.246296e-03 -6.680888e-02 9.639232e-01 -6.398192e-02
1.022000e+10 9.642298e-01 -6.609791e-02 -2.358022e-03 -6.466164e-02 -2.357862e-03 -6.466211e-02 9.639731e-01 -6.656978e-02
1.025500e+10 9.642698e-01 -6.868281e-02 -2.458473e-03 -6.251755e-02 -2.458311e-03 -6.251802e-02 9.640116e-01 -6.915552e-02
1.029000e+10 9.642985e-01 -7.126564e-02 -2.547789e-03 -6.037609e-02 -2.547626e-03 -6.037657e-02 9.640389e-01 -7.173918e-02
1.032500e+10 9.643158e-01 -7.384646e-02 -2.625947e-03 -5.823722e-02 -2.625783e-03 -5.823770e-02 9.640547e-01 -7.432082e-02
1.036000e+10 9.643216e-01 -7.642530e-02 -2.692920e-03 -5.610090e-02 -2.692755e-03 -5.610138e-02 9.640590e-01 -7.690048e-02
1.039500e+10 9.643160e-01 -7.900221e-02 -2.748677e-03 -5.396708e-02 -2.748511e-03 -5.396757e-02 9.640519e-01 -7.947820e-02
1.043000e+10 9.642988e-01 -8.157723e-02 -2.793185e-03 -5.183573e-02 -2.793018e-03 -5.183622e-02 9.640332e-01 -8.205402e-02
1.046500e+10 9.642700e-01 -8.415039e-02 -2.826406e-03 -4.970681e-02 -2.826237e-03 -4.970731e-02 9.640029e-01 -8.462797e-02
1.050000e+10 9.642296e-01 -8.672172e-02 -2.848298e-03 -4.758029e-02 -2.848129e-03 -4.758080e-02 9.639610e-01 -8.720008e-02
1.053500e+10 9.641774e-01 -8.929123e-02 -2.858818e-03 -4.545615e-02 -2.858648e-03 -4.545666e-02 9.639073e-01 -8.977037e-02
1.057000e+10 9.641135e-01 -9.185896e-02 -2.857919e-03 -4.333436e-02 -2.857747e-03 -4.333487e-02 9.638419e-01 -9.233887e-02
1.060500e+10 9.640376e-01 -9.442491e-02 -2.845549e-03 -4.121491e-02 -2.845376e-03 -4.121542e-02 9.637645e-01 -9.490558e-02
1.064000e+10 9.639499e-01 -9.698910e-02 -2.821656e-03 -3.909777e-02 -2.821481e-03 -3.909829e-02 9.636753e-01 -9.747053e-02
1.067500e+10 9.638501e-01 -9.955152e-02 -2.786183e-03 -3.698295e-02 -2.786008e-03 -3.698347e-02 9.635740e-01 -1.000337e-01
1.071000e+10 9.637383e-01 -1.021122e-01 -2.739073e-03 -3.487043e-02 -2.738896e-03 -3.487096e-02 9.634607e-01 -1.025951e-01
1.074500e+10 9.636143e-01 -1.046711e-01 -2.680263e-03 -3.276021e-02 -2.680085e-03 -3.276074e-02 9.633351e-01 -1.051547e-01
1.078000e+10 9.634780e-01 -1.072282e-01 -2.609691e-03 -3.065230e-02 -2.609512e-03 -3.065283e-02 9.631974e-01 -1.077126e-01
1.081500e+10 9.633294e-01 -1.097835e-01 -2.527291e-03 -2.854670e-02 -2.527111e-03 -2.854724e-02 9.630472e-01 -1.102686e-01
1.085000e+10 9.631684e-01 -1.123370e-01 -2.432995e-03 -2.644343e-02 -2.432814e-03 -2.644397e-02 9.628847e-01 -1.128228e-01
1.088500e+10 9.629948e-01 -1.148887e-01 -2.326735e-03 -2.434250e-02 -2.326552e-03 -2.434305e-02 9.627097e-01 -1.153752e-01
1.092000e+10 9.628087e-01 -1.174385e-01 -2.208439e-03 -2.224395e-02 -2.208255e-03 -2.224450e-02 9.625220e-01 -1.179257e-01
1.095500e+10 9.626099e-01 -1.199864e-01 -2.078034e-03 -2.014778e-02 -2.077849e-03 -2.014834e-02 9.623216e-01 -1.204742e-01
1.099000e+10 9.623982e-01 -1.225323e-01 -1.935447e-03 -1.805405e-02 -1.935261e-03 -1.805462e-02 9.621085e-01 -1.230208e-01
1.102500e+10 9.621737e-01 -1.250761e-01 -1.780603e-03 -1.596279e-02 -1.780416e-03 -1.596336e-02 9.618825e-01 -1.255654e-01
1.106000e+10 9.619363e-01 -1.276180e-01 -1.613427e-03 -1.387405e-02 -1.613238e-03 -1.387462e-02 9.616435e-01 -1.281078e-01
1.109500e+10 9.616857e-01 -1.301576e-01 -1.433840e-03 -1.178786e-02 -1.433650e-03 -1.178844e-02 9.613914e-01 -1.306482e-01
1.113000e+10 9.614220e-01 -1.326951e-01 -1.241768e-03 -9.704298e-03 -1.241576e-03 -9.704880e-03 9.611261e-01 -1.331863e-01
1.116500e+10 9.611450e-01 -1.352302e-01 -1.037131e-03 -7.623414e-03 -1.036938e-03 -7.624001e-03 9.608476e-01 -1.357221e-01
1.120000e+10 9.608547e-01 -1.377630e-01 -8.198535e-04 -5.545278e-03 -8.196593e-04 -5.545869e-03 9.605558e-01 -1.382555e-01
1.123500e+10 9.605509e-01 -1.402933e-01 -5.898569e-04 -3.469963e-03 -5.896614e-04 -3.470558e-03 9.602504e-01 -1.407864e-01
1.127000e+10 9.602335e-01 -1.428211e-01 -3.470646e-04 -1.397546e-03 -3.468677e-04 -1.398146e-03 9.599316e-01 -1.433148e-01
1.130500e+10 9.599025e-01 -1.453462e-01 -9.139999e-05 6.718856e-04 -9.120179e-05 6.712824e-04 9.595990e-01 -1.458405e-01
1.134000e+10 9.595578e-01 -1.478685e-01 1.772125e-04 2.738243e-03 1.774121e-04 2.737635e-03 9.592528e-01 -1.483634e-01
1.137500e+10 9.591993e-01 -1.503879e-01 4.588476e-04 4.801428e-03 4.590485e-04 4.800817e-03 9.588927e-01 -1.508834e-01
1.141000e+10 9.588268e-01 -1.529043e-01 7.535786e-04 6.861339e-03 7.537809e-04 6.860723e-03 9.585187e-01 -1.534003e-01
1.144500e+10 9.584404e-01 -1.554175e-01 1.061477e-03 8.917866e-03 1.061681e-03 8.917247e-03 9.581307e-01 -1.559141e-01
1.148000e+10 9.580398e-01 -1.579275e-01 1.382614e-03 1.097089e-02 1.382819e-03 1.097027e-02 9.577286e-01 -1.584246e-01
1.151500e+10 9.576251e-01 -1.604340e-01 1.717057e-03 1.302030e-02 1.717263e-03 1.301968e-02 9.573124e-01 -1.609317e-01
1.155000e+10 9.571962e-01 -1.629369e-01 2.064871e-03 1.506596e-02 2.065079e-03 1.506533e-02 9.568819e-01 -1.634351e-01
1.158500e+10 9.567529e-01 -1.654360e-01 2.426120e-03 1.710774e-02 2.426329e-03 1.710711e-02 9.564371e-01 -1.659348e-01
1.162000e+10 9.562952e-01 -1.679313e-01 2.800864e-03 1.914550e-02 2.801075e-03 1.914487e-02 9.559779e-01 -1.684305e-01
1.165500e+10 9.558231e-01 -1.704224e-01 3.189160e-03 2.117910e-02 3.189373e-03 2.117846e-02 9.555042e-01 -1.709222e-01
1.169000e+10 9.553365e-01 -1.729093e-01 3.591063e-03 2.320837e-02 3.591277e-03 2.320773e-02 9.550160e-01 -1.734095e-01
1.172500e+10 9.548352e-01 -1.753917e-01 4.006623e-03 2.523317e-02 4.006838e-03 2.523252e-02 9.545132e-01 -1.758924e-01
1.176000e+10 9.543194e-01 -1.778694e-01 4.435885e-03 2.725333e-02 4.436101e-03 2.725268e-02 9.539958e-01 -1.783706e-01
1.179500e+10 9.537888e-01 -1.803423e-01 4.878892e-03 2.926868e-02 4.879110e-03 2.926803e-02 9.534636e-01 -1.808440e-01
1.183000e+10 9.532435e-01 -1.828101e-01 5.335681e-03 3.127905e-02 5.335900e-03 3.127839e-02 9.529168e-01 -1.833123e-01
1.186500e+10 9.526834e-01 -1.852727e-01 5.806285e-03 3.328424e-02 5.806506e-03 3.328358e-02 9.523552e-01 -1.857753e-01
1.190000e+10 9.521085e-01 -1.877298e-01 6.290732e-03 3.528408e-02 6.290954e-03 3.528342e-02 9.517787e-01 -1.882328e-01
1.193500e+10 9.515188e-01 -1.901811e-01 6.789044e-03 3.727838e-02 6.789267e-03 3.727771e-02 9.511875e-01 -1.906846e-01
1.197000e+10 9.509143e-01 -1.926266e-01 7.301236e-03 3.926693e-02 7.301461e-03 3.926626e-02 9.505813e-01 -1.931304e-01
1.200500e+10 9.502949e-01 -1.950658e-01 7.827320e-03 4.124953e-02 7.827547e-03 4.124886e-02 9.499604e-01 -1.955700e-01
1.204000e+10 9.496606e-01 -1.974986e-01 8.367300e-03 4.322598e-02 8.367528e-03 4.322530e-02 9.493245e-01 -1.980032e-01
1.207500e+10 9.490114e-01 -1.999247e-01 8.921173e-03 4.519605e-02 8.921402e-03 4.519537e-02 9.486738e-01 -2.004297e-01
1.211000e+10 9.483474e-01 -2.023439e-01 9.488929e-03 4.715953e-02 9.489160e-03 4.715885e-02 9.480082e-01 -2.028492e-01
1.214500e+10 9.476686e-01 -2.047559e-01 1.007055e-02 4.911619e-02 1.007078e-02 4.911551e-02 9.473278e-01 -2.052616e-01
1.218000e+10 9.469750e-01 -2.071604e-01 1.066602e-02 5.106582e-02 1.066625e-02 5.106513e-02 9.466326e-01 -2.076665e-01
1.221500e+10 9.462666e-01 -2.095573e-01 1.127529e-02 5.300816e-02 1.127553e-02 5.300748e-02 9.459227e-01 -2.100636e-01
1.225000e+10 9.455435e-01 -2.119461e-01 1.189834e-02 5.494300e-02 1.189857e-02 5.494231e-02 9.451980e-01 -2.124528e-01
1.228500e+10 9.448057e-01 -2.143267e-01 1.253510e-02 5.687008e-02 1.253534e-02 5.686939e-02 9.444586e-01 -2.148337e-01
1.232000e+10 9.440534e-01 -2.166987e-01 1.318553e-02 5.878917e-02 1.318577e-02 5.878847e-02 9.437047e-01 -2.172060e-01
1.235500e+10 9.432865e-01 -2.190619e-01 1.384955e-02 6.070001e-02 1.384980e-02 6.069931e-02 9.429363e-01 -2.195695e-01
1.239000e+10 9.425052e-01 -2.214160e-01 1.452710e-02 6.260235e-02 1.452734e-02 6.260165e-02 9.421534e-01 -2.219238e-01
1.242500e+10 9.417096e-01 -2.237607e-01 1.521808e-02 6.449595e-02 1.521832e-02 6.449525e-02 9.413562e-01 -2.242687e-01
1.246000e+10 9.408998e-01 -2.260956e-01 1.592239e-02 6.638053e-02 1.592264e-02 6.637983e-02 9.405448e-01 -2.266039e-01
1.249500e+10 9.400759e-01 -2.284206e-01 1.663994e-02 6.825586e-02 1.664019e-02 6.825516e-02 9.397193e-01 -2.289291e-01
1.253000e+10 9.392380e-01 -2.307353e-01 1.737061e-02 7.012165e-02 1.737085e-02 7.012095e-02 9.388799e-01 -2.312440e-01
1.256500e+10 9.383864e-01 -2.330394e-01 1.811426e-02 7.197766e-02 1.811450e-02 7.197696e-02 9.380267e-01 -2.335483e-01
1.260000e+10 9.375211e-01 -2.353327e-01 1.887076e-02 7.382362e-02 1.887100e-02 7.382292e-02 9.371598e-01 -2.358417e-01
1.263500e+10 9.366424e-01 -2.376147e-01 1.963995e-02 7.565927e-02 1.964020e-02 7.565857e-02 9.362795e-01 -2.381240e-01
1.267000e+10 9.357504e-01 -2.398853e-01 2.042169e-02 7.748434e-02 2.042194e-02 7.748363e-02 9.353859e-01 -2.403947e-01
1.270500e+10 9.348453e-01 -2.421441e-01 2.121578e-02 7.929856e-02 2.121603e-02 7.929786e-02 9.344792e-01 -2.426536e-01
1.274000e+10 9.339274e-01 -2.443909e-01 2.202205e-02 8.110168e-02 2.202231e-02 8.110098e-02 9.335597e-01 -2.449005e-01
1.277500e+10 9.329968e-01 -2.466252e-01 2.284030e-02 8.289343e-02 2.284056e-02 8.289273e-02 9.326275e-01 -2.471350e-01
1.281000e+10 9.320539e-01 -2.488470e-01 2.367032e-02 8.467355e-02 2.367058e-02 8.467285e-02 9.316830e-01 -2.493568e-01
1.284500e+10 9.310988e-01 -2.510558e-01 2.451188e-02 8.644178e-02 2.451214e-02 8.644107e-02 9.307263e-01 -2.515657e-01
1.288000e+10 9.301319e-01 -2.532513e-01 2.536475e-02 8.819786e-02 2.536500e-02 8.819716e-02 9.297578e-01 -2.537613e-01
1.291500e+10 9.291535e-01 -2.554334e-01 2.622867e-02 8.994154e-02 2.622893e-02 8.994084e-02 9.287778e-01 -2.559434e-01
1.295000e+10 9.281638e-01 -2.576017e-01 2.710338e-02 9.167257e-02 2.710364e-02 9.167187e-02 9.277865e-01 -2.581117e-01
1.298500e+10 9.271632e-01 -2.597559e-01 2.798861e-02 9.339071e-02 2.798887e-02 9.339001e-02 9.267843e-01 -2.602660e-01
1.302000e+10 9.261520e-01 -2.618958e-01 2.888407e-02 9.509570e-02 2.888433e-02 9.509500e-02 9.257715e-01 -2.624059e-01
1.305500e+10 9.251306e-01 -2.640212e-01 2.978944e-02 9.678732e-02 2.978970e-02 9.678662e-02 9.247485e-01 -2.645313e-01
1.309000e+10 9.240992e-01 -2.661317e-01 3.070441e-02 9.846534e-02 3.070467e-02 9.846464e-02 9.237156e-01 -2.666418e-01
1.312500e+10 9.230585e-01 -2.682272e-01 3.162866e-02 1.001295e-01 3.162891e-02 1.001288e-01 9.226732e-01 -2.687372e-01
1.316000e+10 9.220086e-01 -2.703073e-01 3.256182e-02 1.017797e-01 3.256208e-02 1.017790e-01 9.216217e-01 -2.708173e-01
1.319500e+10 9.209500e-01 -2.723720e-01 3.350354e-02 1.034156e-01 3.350380e-02 1.034149e-01 9.205615e-01 -2.728819e-01
1.323000e+10 9.198833e-01 -2.744209e-01 3.445345e-02 1.050370e-01 3.445371e-02 1.050363e-01 9.194931e-01 -2.749307e-01
1.326500e+10 9.188087e-01 -2.764540e-01 3.541115e-02 1.066438e-01 3.541141e-02 1.066431e-01 9.184170e-01 -2.769636e-01
1.330000e+10 9.177268e-01 -2.784708e-01 3.637624e-02 1.082358e-01 3.637650e-02 1.082351e-01 9.173335e-01 -2.789804e-01
1.333500e+10 9.166381e-01 -2.804715e-01 3.734831e-02 1.098127e-01 3.734857e-02 1.098121e-01 9.162432e-01 -2.809809e-01
1.337000e+10 9.155430e-01 -2.824556e-01 3.832692e-02 1.113746e-01 3.832717e-02 1.113739e-01 9.151465e-01 -2.829649e-01
1.340500e+10 9.144421e-01 -2.844232e-01 3.931162e-02 1.129211e-01 3.931188e-02 1.129204e-01 9.140440e-01 -2.849323e-01
1.344000e+10 9.133359e-01 -2.863740e-01 4.030196e-02 1.144522e-01 4.030221e-02 1.144515e-01 9.129361e-01 -2.868830e-01
1.347500e+10 9.122250e-01 -2.883080e-01 4.129746e-02 1.159678e-01 4.129771e-02 1.159671e-01 9.118236e-01 -2.888168e-01
1.351000e+10 9.111098e-01 -2.902251e-01 4.229764e-02 1.174677e-01 4.229789e-02 1.174670e-01 9.107068e-01 -2.907337e-01
1.354500e+10 9.099910e-01 -2.921252e-01 4.330199e-02 1.189518e-01 4.330224e-02 1.189512e-01 9.095864e-01 -2.926335e-01
1.358000e+10 9.088691e-01 -2.940083e-01 4.431000e-02 1.204202e-01 4.431025e-02 1.204196e-01 9.084629e-01 -2.945163e-01
1.361500e+10 9.077448e-01 -2.958742e-01 4.532115e-02 1.218727e-01 4.532140e-02 1.218721e-01 9.073370e-01 -2.963820e-01
1.365000e+10 9.066187e-01 -2.977230e-01 4.633490e-02 1.233093e-01 4.633514e-02 1.233087e-01 9.062093e-01 -2.982306e-01
1.368500e+10 9.054914e-01 -2.995548e-01 4.735069e-02 1.247300e-01 4.735093e-02 1.247294e-01 9.050804e-01 -3.000620e-01
1.372000e+10 9.043636e-01 -3.013695e-01 4.836797e-02 1.261348e-01 4.836821e-02 1.261342e-01 9.039509e-01 -3.018764e-01
1.375500e+10 9.032358e-01 -3.031672e-01 4.938616e-02 1.275237e-01 4.938639e-02 1.275231e-01 9.028216e-01 -3.036738e-01
1.379000e+10 9.021088e-01 -3.049479e-01 5.040468e-02 1.288968e-01 5.040491e-02 1.288962e-01 9.016930e-01 -3.054542e-01
1.382500e+10 9.009832e-01 -3.067119e-01 5.142293e-02 1.302542e-01 5.142316e-02 1.302535e-01 9.005658e-01 -3.072178e-01
1.386000e+10 8.998598e-01 -3.084592e-01 5.244031e-02 1.315958e-01 5.244053e-02 1.315952e-01 8.994408e-01 -3.089648e-01
1.389500e+10 8.987392e-01 -3.101900e-01 5.345621e-02 1.329219e-01 5.345643e-02 1.329213e-01 8.983186e-01 -3.106952e-01
1.393000e+10 8.976221e-01 -3.119046e-01 5.447001e-02 1.342326e-01 5.447022e-02 1.342320e-01 8.971999e-01 -3.124094e-01
1.396500e+10 8.965093e-01 -3.136030e-01 5.548107e-02 1.355281e-01 5.548129e-02 1.355275e-01 8.960855e-01 -3.141075e-01
1.400000e+10 8.954015e-01 -3.152857e-01 5.648878e-02 1.368085e-01 5.648899e-02 1.368080e-01 8.949760e-01 -3.157897e-01
