#   Hz   S  RI   R   50
!
0.000000e+00 3.685494e-02 0.000000e+00 9.504147e-01 0.000000e+00 9.518499e-01 0.000000e+00 3.443229e-02 0.000000e+00
5.000000e+07 3.705949e-02 1.327356e-02 9.502015e-01 -1.432014e-02 9.516348e-01 -1.438967e-02 3.464024e-02 1.339013e-02
1.000000e+08 3.767269e-02 2.653027e-02 9.495624e-01 -2.862254e-02 9.509899e-01 -2.876137e-02 3.526360e-02 2.676301e-02
1.500000e+08 3.869312e-02 3.975337e-02 9.484988e-01 -4.288952e-02 9.499168e-01 -4.309721e-02 3.630092e-02 4.010142e-02
2.000000e+08 4.011847e-02 5.292619e-02 9.470132e-01 -5.710355e-02 9.484180e-01 -5.737943e-02 3.774981e-02 5.338833e-02
2.500000e+08 4.194549e-02 6.603231e-02 9.451091e-01 -7.124731e-02 9.464969e-01 -7.159049e-02 3.960694e-02 6.660686e-02
3.000000e+08 4.417007e-02 7.905551e-02 9.427909e-01 -8.530375e-02 9.441579e-01 -8.571312e-02 4.186806e-02 7.974043e-02
3.500000e+08 4.678721e-02 9.197993e-02 9.400638e-01 -9.925616e-02 9.414066e-01 -9.973041e-02 4.452802e-02 9.277278e-02
4.000000e+08 4.979107e-02 1.047901e-01 9.369340e-01 -1.130882e-01 9.382491e-01 -1.136258e-01 4.758081e-02 1.056880e-01
4.500000e+08 5.317503e-02 1.174709e-01 9.334086e-01 -1.267841e-01 9.346926e-01 -1.273834e-01 5.101960e-02 1.184708e-01
5.000000e+08 5.693168e-02 1.300078e-01 9.294955e-01 -1.403285e-01 9.307450e-01 -1.409875e-01 5.483676e-02 1.311061e-01
5.500000e+08 6.105290e-02 1.423867e-01 9.252032e-01 -1.537066e-01 9.264152e-01 -1.544232e-01 5.902393e-02 1.435795e-01
6.000000e+08 6.552990e-02 1.545941e-01 9.205410e-01 -1.669043e-01 9.217125e-01 -1.676763e-01 6.357203e-02 1.558773e-01
6.500000e+08 7.035324e-02 1.666172e-01 9.155191e-01 -1.799080e-01 9.166472e-01 -1.807330e-01 6.847136e-02 1.679864e-01
7.000000e+08 7.551290e-02 1.784438e-01 9.101480e-01 -1.927050e-01 9.112300e-01 -1.935803e-01 7.371160e-02 1.798942e-01
7.500000e+08 8.099836e-02 1.900623e-01 9.044388e-01 -2.052832e-01 9.054722e-01 -2.062060e-01 7.928189e-02 1.915889e-01
8.000000e+08 8.679859e-02 2.014618e-01 8.984034e-01 -2.176311e-01 8.993858e-01 -2.185987e-01 8.517088e-02 2.030595e-01
8.500000e+08 9.290216e-02 2.126323e-01 8.920537e-01 -2.297383e-01 8.929829e-01 -2.307477e-01 9.136681e-02 2.142956e-01
9.000000e+08 9.929729e-02 2.235643e-01 8.854023e-01 -2.415949e-01 8.862763e-01 -2.426429e-01 9.785752e-02 2.252876e-01
9.500000e+08 1.059719e-01 2.342491e-01 8.784620e-01 -2.531919e-01 8.792791e-01 -2.542754e-01 1.046305e-01 2.360269e-01
1.000000e+09 1.129135e-01 2.446790e-01 8.712459e-01 -2.645211e-01 8.720044e-01 -2.656368e-01 1.116731e-01 2.465052e-01
1.050000e+09 1.201097e-01 2.548467e-01 8.637673e-01 -2.755751e-01 8.644658e-01 -2.767197e-01 1.189724e-01 2.567155e-01
1.100000e+09 1.275476e-01 2.647458e-01 8.560397e-01 -2.863473e-01 8.566770e-01 -2.875173e-01 1.265152e-01 2.666511e-01
1.150000e+09 1.352146e-01 2.743707e-01 8.480765e-01 -2.968318e-01 8.486518e-01 -2.980239e-01 1.342884e-01 2.763064e-01
1.200000e+09 1.430977e-01 2.837165e-01 8.398915e-01 -3.070237e-01 8.404038e-01 -3.082343e-01 1.422788e-01 2.856765e-01
1.250000e+09 1.511841e-01 2.927789e-01 8.314982e-01 -3.169186e-01 8.319470e-01 -3.181443e-01 1.504730e-01 2.947572e-01
1.300000e+09 1.594610e-01 3.015544e-01 8.229101e-01 -3.265130e-01 8.232950e-01 -3.277502e-01 1.588580e-01 3.035448e-01
1.350000e+09 1.679155e-01 3.100402e-01 8.141407e-01 -3.358041e-01 8.144616e-01 -3.370494e-01 1.674206e-01 3.120368e-01
1.400000e+09 1.765352e-01 3.182342e-01 8.052033e-01 -3.447898e-01 8.054602e-01 -3.460396e-01 1.761478e-01 3.202308e-01
1.450000e+09 1.853075e-01 3.261347e-01 7.961111e-01 -3.534686e-01 7.963043e-01 -3.547196e-01 1.850269e-01 3.281256e-01
1.500000e+09 1.942202e-01 3.337409e-01 7.868770e-01 -3.618398e-01 7.870068e-01 -3.630884e-01 1.940453e-01 3.357203e-01
1.550000e+09 2.032613e-01 3.410523e-01 7.775137e-01 -3.699031e-01 7.775808e-01 -3.711461e-01 2.031905e-01 3.430145e-01
1.600000e+09 2.124189e-01 3.480693e-01 7.680335e-01 -3.776589e-01 7.680387e-01 -3.788930e-01 2.124505e-01 3.500088e-01
1.650000e+09 2.216815e-01 3.547925e-01 7.584486e-01 -3.851081e-01 7.583930e-01 -3.863302e-01 2.218135e-01 3.567040e-01
1.700000e+09 2.310380e-01 3.612230e-01 7.487709e-01 -3.922524e-01 7.486555e-01 -3.934593e-01 2.312680e-01 3.631014e-01
1.750000e+09 2.404773e-01 3.673627e-01 7.390117e-01 -3.990935e-01 7.388379e-01 -4.002822e-01 2.408027e-01 3.692029e-01
1.800000e+09 2.499889e-01 3.732135e-01 7.291822e-01 -4.056339e-01 7.289515e-01 -4.068015e-01 2.504068e-01 3.750108e-01
1.850000e+09 2.595626e-01 3.787779e-01 7.192931e-01 -4.118764e-01 7.190071e-01 -4.130201e-01 2.600699e-01 3.805279e-01
1.900000e+09 2.691885e-01 3.840589e-01 7.093547e-01 -4.178242e-01 7.090153e-01 -4.189414e-01 2.697819e-01 3.857571e-01
1.950000e+09 2.788570e-01 3.890595e-01 6.993771e-01 -4.234809e-01 6.989860e-01 -4.245689e-01 2.795330e-01 3.907019e-01
2.000000e+09 2.885591e-01 3.937833e-01 6.893697e-01 -4.288502e-01 6.889291e-01 -4.299068e-01 2.893138e-01 3.953661e-01
2.050000e+09 2.982858e-01 3.982341e-01 6.793418e-01 -4.339365e-01 6.788538e-01 -4.349593e-01 2.991155e-01 3.997537e-01
2.100000e+09 3.080288e-01 4.024158e-01 6.693022e-01 -4.387441e-01 6.687689e-01 -4.397310e-01 3.089294e-01 4.038690e-01
2.150000e+09 3.177801e-01 4.063327e-01 6.592591e-01 -4.432776e-01 6.586829e-01 -4.442267e-01 3.187474e-01 4.077164e-01
2.200000e+09 3.275320e-01 4.099893e-01 6.492205e-01 -4.475419e-01 6.486039e-01 -4.484513e-01 3.285618e-01 4.113007e-01
2.250000e+09 3.372771e-01 4.133901e-01 6.391941e-01 -4.515421e-01 6.385395e-01 -4.524101e-01 3.383650e-01 4.146268e-01
2.300000e+09 3.470086e-01 4.165399e-01 6.291869e-01 -4.552833e-01 6.284970e-01 -4.561085e-01 3.481501e-01 4.176996e-01
2.350000e+09 3.567198e-01 4.194436e-01 6.192059e-01 -4.587709e-01 6.184831e-01 -4.595518e-01 3.579104e-01 4.205244e-01
2.400000e+09 3.664046e-01 4.221061e-01 6.092573e-01 -4.620101e-01 6.085043e-01 -4.627456e-01 3.676397e-01 4.231064e-01
2.450000e+09 3.760570e-01 4.245326e-01 5.993473e-01 -4.650066e-01 5.985668e-01 -4.656956e-01 3.773321e-01 4.254509e-01
2.500000e+09 3.856715e-01 4.267282e-01 5.894815e-01 -4.677659e-01 5.886762e-01 -4.684076e-01 3.869819e-01 4.275633e-01
2.550000e+09 3.952429e-01 4.286980e-01 5.796653e-01 -4.702936e-01 5.788379e-01 -4.708872e-01 3.965840e-01 4.294491e-01
2.600000e+09 4.047663e-01 4.304472e-01 5.699036e-01 -4.725954e-01 5.690569e-01 -4.731402e-01 4.061335e-01 4.311138e-01
2.650000e+09 4.142370e-01 4.319812e-01 5.602011e-01 -4.746767e-01 5.593378e-01 -4.751726e-01 4.156258e-01 4.325628e-01
2.700000e+09 4.236509e-01 4.333051e-01 5.505622e-01 -4.765434e-01 5.496849e-01 -4.769899e-01 4.250567e-01 4.338016e-01
2.750000e+09 4.330038e-01 4.344241e-01 5.409909e-01 -4.782011e-01 5.401024e-01 -4.785981e-01 4.344221e-01 4.348357e-01
2.800000e+09 4.422921e-01 4.353436e-01 5.314910e-01 -4.796552e-01 5.305939e-01 -4.800028e-01 4.437185e-01 4.356706e-01
2.850000e+09 4.515122e-01 4.360685e-01 5.220659e-01 -4.809114e-01 5.211628e-01 -4.812097e-01 4.529425e-01 4.363115e-01
2.900000e+09 4.606609e-01 4.366042e-01 5.127188e-01 -4.819752e-01 5.118123e-01 -4.822245e-01 4.620909e-01 4.367640e-01
2.950000e+09 4.697354e-01 4.369556e-01 5.034526e-01 -4.828520e-01 5.025453e-01 -4.830528e-01 4.711608e-01 4.370333e-01
3.000000e+09 4.787327e-01 4.371279e-01 4.942701e-01 -4.835472e-01 4.933644e-01 -4.837000e-01 4.801496e-01 4.371246e-01
3.050000e+09 4.876505e-01 4.371259e-01 4.851737e-01 -4.840661e-01 4.842720e-01 -4.841716e-01 4.890549e-01 4.370430e-01
3.100000e+09 4.964864e-01 4.369546e-01 4.761656e-01 -4.844139e-01 4.752703e-01 -4.844729e-01 4.978746e-01 4.367938e-01
3.150000e+09 5.052382e-01 4.366188e-01 4.672479e-01 -4.845958e-01 4.663612e-01 -4.846092e-01 5.066066e-01 4.363818e-01
3.200000e+09 5.139041e-01 4.361232e-01 4.584223e-01 -4.846168e-01 4.575465e-01 -4.845856e-01 5.152491e-01 4.358120e-01
3.250000e+09 5.224824e-01 4.354726e-01 4.496905e-01 -4.844819e-01 4.488276e-01 -4.844072e-01 5.238007e-01 4.350892e-01
3.300000e+09 5.309713e-01 4.346714e-01 4.410539e-01 -4.841959e-01 4.402061e-01 -4.840790e-01 5.322597e-01 4.342181e-01
3.350000e+09 5.393696e-01 4.337243e-01 4.325139e-01 -4.837636e-01 4.316830e-01 -4.836057e-01 5.406251e-01 4.332033e-01
3.400000e+09 5.476760e-01 4.326355e-01 4.240715e-01 -4.831896e-01 4.232594e-01 -4.829921e-01 5.488957e-01 4.320494e-01
3.450000e+09 5.558894e-01 4.314095e-01 4.157277e-01 -4.824785e-01 4.149361e-01 -4.822429e-01 5.570705e-01 4.307609e-01
3.500000e+09 5.640087e-01 4.300504e-01 4.074833e-01 -4.816348e-01 4.067139e-01 -4.813625e-01 5.651488e-01 4.293419e-01
3.550000e+09 5.720332e-01 4.285624e-01 3.993391e-01 -4.806627e-01 3.985934e-01 -4.803555e-01 5.731298e-01 4.277968e-01
3.600000e+09 5.799621e-01 4.269495e-01 3.912955e-01 -4.795665e-01 3.905751e-01 -4.792259e-01 5.810131e-01 4.261296e-01
3.650000e+09 5.877948e-01 4.252156e-01 3.833531e-01 -4.783504e-01 3.826593e-01 -4.779781e-01 5.887980e-01 4.243444e-01
3.700000e+09 5.955307e-01 4.233646e-01 3.755122e-01 -4.770184e-01 3.748462e-01 -4.766162e-01 5.964844e-01 4.224451e-01
3.750000e+09 6.031695e-01 4.214002e-01 3.677730e-01 -4.755743e-01 3.671359e-01 -4.751440e-01 6.040720e-01 4.204355e-01
3.800000e+09 6.107109e-01 4.193261e-01 3.601357e-01 -4.740221e-01 3.595286e-01 -4.735654e-01 6.115606e-01 4.183192e-01
3.850000e+09 6.181545e-01 4.171459e-01 3.526003e-01 -4.723654e-01 3.520242e-01 -4.718842e-01 6.189502e-01 4.160999e-01
3.900000e+09 6.255002e-01 4.148631e-01 3.451669e-01 -4.706078e-01 3.446225e-01 -4.701040e-01 6.262407e-01 4.137811e-01
3.950000e+09 6.327481e-01 4.124809e-01 3.378352e-01 -4.687528e-01 3.373234e-01 -4.682283e-01 6.334323e-01 4.113662e-01
4.000000e+09 6.398979e-01 4.100029e-01 3.306053e-01 -4.668039e-01 3.301265e-01 -4.662606e-01 6.405252e-01 4.088584e-01
4.050000e+09 6.469499e-01 4.074320e-01 3.234767e-01 -4.647644e-01 3.230316e-01 -4.642042e-01 6.475194e-01 4.062611e-01
4.100000e+09 6.539041e-01 4.047716e-01 3.164493e-01 -4.626375e-01 3.160383e-01 -4.620623e-01 6.544154e-01 4.035773e-01
4.150000e+09 6.607606e-01 4.020246e-01 3.095226e-01 -4.604263e-01 3.091460e-01 -4.598380e-01 6.612134e-01 4.008101e-01
4.200000e+09 6.675198e-01 3.991939e-01 3.026963e-01 -4.581339e-01 3.023544e-01 -4.575343e-01 6.679139e-01 3.979623e-01
4.250000e+09 6.741818e-01 3.962826e-01 2.959700e-01 -4.557632e-01 2.956628e-01 -4.551543e-01 6.745172e-01 3.950369e-01
4.300000e+09 6.807470e-01 3.932933e-01 2.893431e-01 -4.533171e-01 2.890706e-01 -4.527007e-01 6.810238e-01 3.920366e-01
4.350000e+09 6.872158e-01 3.902289e-01 2.828151e-01 -4.507984e-01 2.825774e-01 -4.501763e-01 6.874343e-01 3.889641e-01
4.400000e+09 6.935885e-01 3.870919e-01 2.763855e-01 -4.482097e-01 2.761823e-01 -4.475838e-01 6.937491e-01 3.858219e-01
4.450000e+09 6.998656e-01 3.838850e-01 2.700536e-01 -4.455537e-01 2.698847e-01 -4.449258e-01 6.999688e-01 3.826127e-01
4.500000e+09 7.060476e-01 3.806107e-01 2.638189e-01 -4.428330e-01 2.636840e-01 -4.422047e-01 7.060940e-01 3.793389e-01
4.550000e+09 7.121348e-01 3.772714e-01 2.576806e-01 -4.400499e-01 2.575793e-01 -4.394230e-01 7.121254e-01 3.760029e-01
4.600000e+09 7.181279e-01 3.738694e-01 2.516382e-01 -4.372069e-01 2.515700e-01 -4.365830e-01 7.180636e-01 3.726068e-01
4.650000e+09 7.240275e-01 3.704072e-01 2.456908e-01 -4.343062e-01 2.456552e-01 -4.336871e-01 7.239091e-01 3.691531e-01
4.700000e+09 7.298339e-01 3.668869e-01 2.398378e-01 -4.313502e-01 2.398341e-01 -4.307374e-01 7.296629e-01 3.656438e-01
4.750000e+09 7.355480e-01 3.633108e-01 2.340784e-01 -4.283411e-01 2.341060e-01 -4.277360e-01 7.353254e-01 3.620810e-01
4.800000e+09 7.411702e-01 3.596809e-01 2.284119e-01 -4.252808e-01 2.284700e-01 -4.246850e-01 7.408974e-01 3.584669e-01
4.850000e+09 7.467012e-01 3.559994e-01 2.228376e-01 -4.221716e-01 2.229253e-01 -4.215864e-01 7.463797e-01 3.548033e-01
4.900000e+09 7.521417e-01 3.522682e-01 2.173546e-01 -4.190153e-01 2.174711e-01 -4.184422e-01 7.517730e-01 3.510921e-01
4.950000e+09 7.574923e-01 3.484894e-01 2.119621e-01 -4.158140e-01 2.121065e-01 -4.152542e-01 7.570780e-01 3.473353e-01
5.000000e+09 7.627536e-01 3.446647e-01 2.066594e-01 -4.125694e-01 2.068306e-01 -4.120242e-01 7.622955e-01 3.435346e-01
5.050000e+09 7.679264e-01 3.407961e-01 2.014456e-01 -4.092834e-01 2.016427e-01 -4.087540e-01 7.674262e-01 3.396918e-01
5.100000e+09 7.730114e-01 3.368854e-01 1.963200e-01 -4.059578e-01 1.965418e-01 -4.054452e-01 7.724709e-01 3.358086e-01
5.150000e+09 7.780092e-01 3.329343e-01 1.912817e-01 -4.025943e-01 1.915271e-01 -4.020996e-01 7.774303e-01 3.318866e-01
5.200000e+09 7.829206e-01 3.289445e-01 1.863298e-01 -3.991945e-01 1.865977e-01 -3.987187e-01 7.823053e-01 3.279274e-01
5.250000e+09 7.877464e-01 3.249177e-01 1.814637e-01 -3.957600e-01 1.817528e-01 -3.953041e-01 7.870965e-01 3.239326e-01
5.300000e+09 7.924871e-01 3.208554e-01 1.766824e-01 -3.922925e-01 1.769915e-01 -3.918572e-01 7.918048e-01 3.199036e-01
5.350000e+09 7.971436e-01 3.167594e-01 1.719850e-01 -3.887933e-01 1.723129e-01 -3.883795e-01 7.964310e-01 3.158419e-01
5.400000e+09 8.017167e-01 3.126310e-01 1.673709e-01 -3.852641e-01 1.677163e-01 -3.848724e-01 8.009757e-01 3.117490e-01
5.450000e+09 8.062070e-01 3.084718e-01 1.628391e-01 -3.817062e-01 1.632007e-01 -3.813373e-01 8.054399e-01 3.076262e-01
5.500000e+09 8.106153e-01 3.042833e-01 1.583887e-01 -3.781210e-01 1.587653e-01 -3.777755e-01 8.098241e-01 3.034748e-01
5.550000e+09 8.149423e-01 3.000667e-01 1.540191e-01 -3.745098e-01 1.544093e-01 -3.741882e-01 8.141293e-01 2.992962e-01
5.600000e+09 8.191889e-01 2.958236e-01 1.497293e-01 -3.708740e-01 1.501317e-01 -3.705767e-01 8.183562e-01 2.950916e-01
5.650000e+09 8.233558e-01 2.915552e-01 1.455185e-01 -3.672149e-01 1.459319e-01 -3.669422e-01 8.225055e-01 2.908622e-01
5.700000e+09 8.274437e-01 2.872629e-01 1.413859e-01 -3.635336e-01 1.418089e-01 -3.632859e-01 8.265780e-01 2.866093e-01
5.750000e+09 8.314534e-01 2.829478e-01 1.373307e-01 -3.598313e-01 1.377619e-01 -3.596089e-01 8.305744e-01 2.823339e-01
5.800000e+09 8.353857e-01 2.786113e-01 1.333520e-01 -3.561093e-01 1.337901e-01 -3.559122e-01 8.344956e-01 2.780372e-01
5.850000e+09 8.392413e-01 2.742545e-01 1.294490e-01 -3.523686e-01 1.298927e-01 -3.521970e-01 8.383422e-01 2.737203e-01
5.900000e+09 8.430210e-01 2.698786e-01 1.256210e-01 -3.486104e-01 1.260689e-01 -3.484643e-01 8.421151e-01 2.693842e-01
5.950000e+09 8.467256e-01 2.654847e-01 1.218670e-01 -3.448356e-01 1.223179e-01 -3.447150e-01 8.458149e-01 2.650301e-01
6.000000e+09 8.503558e-01 2.610739e-01 1.181863e-01 -3.410454e-01 1.186389e-01 -3.409502e-01 8.494424e-01 2.606588e-01
6.050000e+09 8.539125e-01 2.566473e-01 1.145781e-01 -3.372408e-01 1.150311e-01 -3.371708e-01 8.529983e-01 2.562714e-01
6.100000e+09 8.573963e-01 2.522059e-01 1.110416e-01 -3.334226e-01 1.114938e-01 -3.333777e-01 8.564833e-01 2.518688e-01
6.150000e+09 8.608080e-01 2.477508e-01 1.075760e-01 -3.295919e-01 1.080261e-01 -3.295717e-01 8.598982e-01 2.474519e-01
6.200000e+09 8.641484e-01 2.432828e-01 1.041806e-01 -3.257496e-01 1.046273e-01 -3.257538e-01 8.632437e-01 2.430217e-01
6.250000e+09 8.674183e-01 2.388031e-01 1.008544e-01 -3.218965e-01 1.012967e-01 -3.219248e-01 8.665205e-01 2.385790e-01
6.300000e+09 8.706183e-01 2.343125e-01 9.759679e-02 -3.180335e-01 9.803343e-02 -3.180855e-01 8.697293e-01 2.341247e-01
6.350000e+09 8.737494e-01 2.298119e-01 9.440695e-02 -3.141615e-01 9.483685e-02 -3.142367e-01 8.728708e-01 2.296595e-01
6.400000e+09 8.768121e-01 2.253022e-01 9.128413e-02 -3.102813e-01 9.170619e-02 -3.103792e-01 8.759457e-01 2.251844e-01
6.450000e+09 8.798074e-01 2.207843e-01 8.822754e-02 -3.063937e-01 8.864072e-02 -3.065136e-01 8.789547e-01 2.207000e-01
6.500000e+09 8.827358e-01 2.162590e-01 8.523645e-02 -3.024994e-01 8.563973e-02 -3.026408e-01 8.818985e-01 2.162072e-01
6.550000e+09 8.855983e-01 2.117271e-01 8.231010e-02 -2.985992e-01 8.270251e-02 -2.987614e-01 8.847778e-01 2.117067e-01
6.600000e+09 8.883954e-01 2.071893e-01 7.944774e-02 -2.946939e-01 7.982834e-02 -2.948761e-01 8.875932e-01 2.071992e-01
6.650000e+09 8.911280e-01 2.026465e-01 7.664863e-02 -2.907840e-01 7.701653e-02 -2.909856e-01 8.903454e-01 2.026854e-01
6.700000e+09 8.937967e-01 1.980994e-01 7.391204e-02 -2.868703e-01 7.426639e-02 -2.870906e-01 8.930350e-01 1.981661e-01
6.750000e+09 8.964024e-01 1.935487e-01 7.123724e-02 -2.829535e-01 7.157724e-02 -2.831915e-01 8.956629e-01 1.936418e-01
6.800000e+09 8.989458e-01 1.889951e-01 6.862352e-02 -2.790342e-01 6.894840e-02 -2.792892e-01 8.982295e-01 1.891132e-01
6.850000e+09 9.014275e-01 1.844392e-01 6.607015e-02 -2.751130e-01 6.637919e-02 -2.753841e-01 9.007355e-01 1.845811e-01
6.900000e+09 9.038483e-01 1.798818e-01 6.357643e-02 -2.711906e-01 6.386897e-02 -2.714769e-01 9.031817e-01 1.800459e-01
6.950000e+09 9.062089e-01 1.753234e-01 6.114164e-02 -2.672674e-01 6.141706e-02 -2.675680e-01 9.055685e-01 1.755083e-01
7.000000e+09 9.085100e-01 1.707648e-01 5.876511e-02 -2.633441e-01 5.902283e-02 -2.636581e-01 9.078968e-01 1.709689e-01
7.050000e+09 9.107524e-01 1.662064e-01 5.644612e-02 -2.594213e-01 5.668563e-02 -2.597477e-01 9.101670e-01 1.664282e-01
7.100000e+09 9.129367e-01 1.616488e-01 5.418401e-02 -2.554994e-01 5.440482e-02 -2.558373e-01 9.123798e-01 1.618868e-01
7.150000e+09 9.150637e-01 1.570927e-01 5.197809e-02 -2.515790e-01 5.217978e-02 -2.519273e-01 9.145359e-01 1.573453e-01
7.200000e+09 9.171340e-01 1.525385e-01 4.982768e-02 -2.476606e-01 5.000988e-02 -2.480184e-01 9.166358e-01 1.528041e-01
7.250000e+09 9.191483e-01 1.479869e-01 4.773213e-02 -2.437447e-01 4.789450e-02 -2.441109e-01 9.186802e-01 1.482638e-01
7.300000e+09 9.211073e-01 1.434381e-01 4.569077e-02 -2.398316e-01 4.583305e-02 -2.402054e-01 9.206696e-01 1.437248e-01
7.350000e+09 9.230117e-01 1.388929e-01 4.370295e-02 -2.359220e-01 4.382490e-02 -2.363022e-01 9.226048e-01 1.391878e-01
7.400000e+09 9.248621e-01 1.343516e-01 4.176803e-02 -2.320162e-01 4.186948e-02 -2.324018e-01 9.244861e-01 1.346530e-01
7.450000e+09 9.266593e-01 1.298147e-01 3.988536e-02 -2.281146e-01 3.996617e-02 -2.285046e-01 9.263144e-01 1.301211e-01
7.500000e+09 9.284039e-01 1.252827e-01 3.805431e-02 -2.242177e-01 3.811441e-02 -2.246111e-01 9.280900e-01 1.255924e-01
7.550000e+09 9.300965e-01 1.207559e-01 3.627425e-02 -2.203259e-01 3.631361e-02 -2.207216e-01 9.298137e-01 1.210674e-01
7.600000e+09 9.317377e-01 1.162347e-01 3.454457e-02 -2.164395e-01 3.456320e-02 -2.168366e-01 9.314859e-01 1.165464e-01
7.650000e+09 9.333284e-01 1.117197e-01 3.286464e-02 -2.125589e-01 3.286262e-02 -2.129564e-01 9.331074e-01 1.120300e-01
7.700000e+09 9.348690e-01 1.072111e-01 3.123386e-02 -2.086845e-01 3.121129e-02 -2.090814e-01 9.346785e-01 1.075185e-01
7.750000e+09 9.363602e-01 1.027093e-01 2.965163e-02 -2.048166e-01 2.960867e-02 -2.052119e-01 9.362000e-01 1.030122e-01
7.800000e+09 9.378027e-01 9.821463e-02 2.811736e-02 -2.009555e-01 2.805420e-02 -2.013482e-01 9.376722e-01 9.851165e-02
7.850000e+09 9.391970e-01 9.372748e-02 2.663046e-02 -1.971017e-01 2.654734e-02 -1.974908e-01 9.390959e-01 9.401711e-02
7.900000e+09 9.405437e-01 8.924815e-02 2.519035e-02 -1.932552e-01 2.508756e-02 -1.936400e-01 9.404715e-01 8.952895e-02
7.950000e+09 9.418436e-01 8.477695e-02 2.379645e-02 -1.894166e-01 2.367432e-02 -1.897960e-01 9.417996e-01 8.504753e-02
8.000000e+09 9.430971e-01 8.031417e-02 2.244819e-02 -1.855860e-01 2.230710e-02 -1.859592e-01 9.430808e-01 8.057318e-02
8.050000e+09 9.443049e-01 7.586011e-02 2.114502e-02 -1.817638e-01 2.098537e-02 -1.821299e-01 9.443154e-01 7.610621e-02
8.100000e+09 9.454675e-01 7.141503e-02 1.988638e-02 -1.779502e-01 1.970861e-02 -1.783083e-01 9.455042e-01 7.164695e-02
8.150000e+09 9.465856e-01 6.697919e-02 1.867173e-02 -1.741454e-01 1.847632e-02 -1.744948e-01 9.466476e-01 6.719570e-02
8.200000e+09 9.476597e-01 6.255284e-02 1.750052e-02 -1.703497e-01 1.728799e-02 -1.706896e-01 9.477461e-01 6.275274e-02
8.250000e+09 9.486903e-01 5.813621e-02 1.637222e-02 -1.665634e-01 1.614312e-02 -1.668930e-01 9.488002e-01 5.831838e-02
8.300000e+09 9.496781e-01 5.372954e-02 1.528631e-02 -1.627866e-01 1.504121e-02 -1.631052e-01 9.498105e-01 5.389289e-02
8.350000e+09 9.506236e-01 4.933304e-02 1.424226e-02 -1.590196e-01 1.398179e-02 -1.593265e-01 9.507774e-01 4.947653e-02
8.400000e+09 9.515272e-01 4.494691e-02 1.323955e-02 -1.552626e-01 1.296435e-02 -1.555571e-01 9.517015e-01 4.506955e-02
8.450000e+09 9.523896e-01 4.057135e-02 1.227770e-02 -1.515158e-01 1.198842e-02 -1.517973e-01 9.525832e-01 4.067222e-02
8.500000e+09 9.532114e-01 3.620654e-02 1.135619e-02 -1.477793e-01 1.105354e-02 -1.480472e-01 9.534231e-01 3.628478e-02
8.550000e+09 9.539929e-01 3.185265e-02 1.047453e-02 -1.440534e-01 1.015922e-02 -1.443072e-01 9.542216e-01 3.190745e-02
8.600000e+09 9.547347e-01 2.750985e-02 9.632232e-03 -1.403383e-01 9.305013e-03 -1.405774e-01 9.549792e-01 2.754046e-02
8.650000e+09 9.554374e-01 2.317830e-02 8.828826e-03 -1.366340e-01 8.490450e-03 -1.368580e-01 9.556964e-01 2.318402e-02
8.700000e+09 9.561014e-01 1.885813e-02 8.063835e-03 -1.329408e-01 7.715082e-03 -1.331492e-01 9.563736e-01 1.883836e-02
8.750000e+09 9.567272e-01 1.454950e-02 7.336793e-03 -1.292588e-01 6.978458e-03 -1.294512e-01 9.570114e-01 1.450366e-02
8.800000e+09 9.573153e-01 1.025253e-02 6.647243e-03 -1.255881e-01 6.280137e-03 -1.257642e-01 9.576101e-01 1.018012e-02
8.850000e+09 9.578661e-01 5.967337e-03 5.994733e-03 -1.219289e-01 5.619678e-03 -1.220883e-01 9.581702e-01 5.867926e-03
8.900000e+09 9.583802e-01 1.694040e-03 5.378817e-03 -1.182814e-01 4.996649e-03 -1.184238e-01 9.586923e-01 1.567259e-03
8.950000e+09 9.588580e-01 -2.567257e-03 4.799058e-03 -1.146456e-01 4.410621e-03 -1.147708e-01 9.591767e-01 -2.721710e-03
9.000000e+09 9.593000e-01 -6.816454e-03 4.255025e-03 -1.110216e-01 3.861170e-03 -1.111294e-01 9.596239e-01 -6.998818e-03
9.050000e+09 9.597065e-01 -1.105346e-02 3.746292e-03 -1.074096e-01 3.347877e-03 -1.074998e-01 9.600342e-01 -1.126391e-02
9.100000e+09 9.600781e-01 -1.527819e-02 3.272443e-03 -1.038097e-01 2.870329e-03 -1.038822e-01 9.604083e-01 -1.551683e-02
9.150000e+09 9.604151e-01 -1.949056e-02 2.833066e-03 -1.002219e-01 2.428116e-03 -1.002766e-01 9.607464e-01 -1.975743e-02
9.200000e+09 9.607180e-01 -2.369051e-02 2.427757e-03 -9.664637e-02 2.020835e-03 -9.668327e-02 9.610490e-01 -2.398559e-02
9.250000e+09 9.609872e-01 -2.787796e-02 2.056118e-03 -9.308320e-02 1.648085e-03 -9.310228e-02 9.613165e-01 -2.820116e-02
9.300000e+09 9.612231e-01 -3.205286e-02 1.717759e-03 -8.953247e-02 1.309472e-03 -8.953376e-02 9.615494e-01 -3.240403e-02
9.350000e+09 9.614261e-01 -3.621516e-02 1.412294e-03 -8.599424e-02 1.004608e-03 -8.597783e-02 9.617480e-01 -3.659407e-02
9.400000e+09 9.615966e-01 -4.036479e-02 1.139347e-03 -8.246859e-02 7.331064e-04 -8.243461e-02 9.619128e-01 -4.077117e-02
9.450000e+09 9.617349e-01 -4.450172e-02 8.985457e-04 -7.895558e-02 4.945879e-04 -7.890419e-02 9.620440e-01 -4.493523e-02
9.500000e+09 9.618415e-01 -4.862591e-02 6.895259e-04 -7.545529e-02 2.886774e-04 -7.538668e-02 9.621423e-01 -4.908614e-02
9.550000e+09 9.619166e-01 -5.273732e-02 5.119293e-04 -7.196777e-02 1.150042e-04 -7.188217e-02 9.622078e-01 -5.322381e-02
9.600000e+09 9.619607e-01 -5.683593e-02 3.654042e-04 -6.849308e-02 -2.679703e-05 -6.839077e-02 9.622411e-01 -5.734815e-02
9.650000e+09 9.619742e-01 -6.092169e-02 2.496053e-04 -6.503127e-02 -1.370873e-04 -6.491256e-02 9.622424e-01 -6.145907e-02
9.700000e+09 9.619573e-01 -6.499460e-02 1.641937e-04 -6.158238e-02 -2.162226e-04 -6.144763e-02 9.622122e-01 -6.555650e-02
9.750000e+09 9.619104e-01 -6.905463e-02 1.088367e-04 -5.814646e-02 -2.645543e-04 -5.799605e-02 9.621508e-01 -6.964035e-02
9.800000e+09 9.618338e-01 -7.310177e-02 8.320795e-05 -5.472355e-02 -2.824290e-04 -5.455789e-02 9.620586e-01 -7.371057e-02
9.850000e+09 9.617278e-01 -7.713600e-02 8.698730e-05 -5.131370e-02 -2.701885e-04 -5.113324e-02 9.619360e-01 -7.776708e-02
9.900000e+09 9.615928e-01 -8.115732e-02 1.198607e-04 -4.791692e-02 -2.281700e-04 -4.772215e-02 9.617832e-01 -8.180982e-02
9.950000e+09 9.614291e-01 -8.516572e-02 1.815203e-04 -4.453326e-02 -1.567058e-04 -4.432470e-02 9.616007e-01 -8.583875e-02
1.000000e+10 9.612369e-01 -8.916118e-02 2.716641e-04 -4.116275e-02 -5.612366e-05 -4.094093e-02 9.613888e-01 -8.985381e-02
1.005000e+10 9.610166e-01 -9.314372e-02 3.899963e-04 -3.780541e-02 7.325336e-05 -3.757091e-02 9.611478e-01 -9.385495e-02
1.010000e+10 9.607684e-01 -9.711333e-02 5.362269e-04 -3.446127e-02 2.311070e-04 -3.421468e-02 9.608781e-01 -9.784213e-02
1.015000e+10 9.604926e-01 -1.010700e-01 7.100717e-04 -3.113034e-02 4.171235e-04 -3.087230e-02 9.605799e-01 -1.018153e-01
1.020000e+10 9.601895e-01 -1.050138e-01 9.112524e-04 -2.781266e-02 6.309939e-04 -2.754381e-02 9.602537e-01 -1.057745e-01
1.025000e+10 9.598594e-01 -1.089446e-01 1.139496e-03 -2.450823e-02 8.724139e-04 -2.422925e-02 9.598997e-01 -1.097196e-01
1.030000e+10 9.595024e-01 -1.128625e-01 1.394536e-03 -2.121708e-02 1.141084e-03 -2.092867e-02 9.595182e-01 -1.136506e-01
1.035000e+10 9.591190e-01 -1.167676e-01 1.676111e-03 -1.793921e-02 1.436708e-03 -1.764208e-02 9.591095e-01 -1.175675e-01
1.040000e+10 9.587092e-01 -1.206597e-01 1.983964e-03 -1.467465e-02 1.758997e-03 -1.436954e-02 9.586741e-01 -1.214702e-01
1.045000e+10 9.582734e-01 -1.245389e-01 2.317846e-03 -1.142340e-02 2.107665e-03 -1.111106e-02 9.582120e-01 -1.253588e-01
1.050000e+10 9.578117e-01 -1.284053e-01 2.677510e-03 -8.185472e-03 2.482429e-03 -7.866674e-03 9.577237e-01 -1.292333e-01
1.055000e+10 9.573245e-01 -1.322588e-01 3.062718e-03 -4.960880e-03 2.883014e-03 -4.636406e-03 9.572094e-01 -1.330936e-01
1.060000e+10 9.568119e-01 -1.360994e-01 3.473233e-03 -1.749631e-03 3.309146e-03 -1.420276e-03 9.566694e-01 -1.369397e-01
1.065000e+10 9.562741e-01 -1.399273e-01 3.908827e-03 1.448267e-03 3.760560e-03 1.781697e-03 9.561040e-01 -1.407716e-01
1.070000e+10 9.557114e-01 -1.437422e-01 4.369274e-03 4.632807e-03 4.236991e-03 4.969497e-03 9.555134e-01 -1.445893e-01
1.075000e+10 9.551239e-01 -1.475444e-01 4.854354e-03 7.803984e-03 4.738180e-03 8.143109e-03 9.548979e-01 -1.483929e-01
1.080000e+10 9.545118e-01 -1.513337e-01 5.363853e-03 1.096179e-02 5.263874e-03 1.130252e-02 9.542578e-01 -1.521823e-01
1.085000e+10 9.538754e-01 -1.551103e-01 5.897560e-03 1.410622e-02 5.813823e-03 1.444773e-02 9.535934e-01 -1.559575e-01
1.090000e+10 9.532149e-01 -1.588740e-01 6.455269e-03 1.723727e-02 6.387782e-03 1.757872e-02 9.529048e-01 -1.597186e-01
1.095000e+10 9.525303e-01 -1.626250e-01 7.036779e-03 2.035493e-02 6.985509e-03 2.069549e-02 9.521923e-01 -1.634655e-01
1.100000e+10 9.518219e-01 -1.663632e-01 7.641894e-03 2.345921e-02 7.606769e-03 2.379803e-02 9.514562e-01 -1.671983e-01
1.105000e+10 9.510899e-01 -1.700887e-01 8.270420e-03 2.655008e-02 8.251329e-03 2.688635e-02 9.506967e-01 -1.709169e-01
1.110000e+10 9.503344e-01 -1.738014e-01 8.922169e-03 2.962756e-02 8.918962e-03 2.996043e-02 9.499140e-01 -1.746214e-01
1.115000e+10 9.495556e-01 -1.775013e-01 9.596958e-03 3.269162e-02 9.609444e-03 3.302030e-02 9.491084e-01 -1.783119e-01
1.120000e+10 9.487536e-01 -1.811885e-01 1.029461e-02 3.574228e-02 1.032256e-02 3.606594e-02 9.482800e-01 -1.819882e-01
1.125000e+10 9.479286e-01 -1.848629e-01 1.101494e-02 3.877951e-02 1.105808e-02 3.909736e-02 9.474291e-01 -1.856506e-01
1.130000e+10 9.470808e-01 -1.885246e-01 1.175778e-02 4.180332e-02 1.181581e-02 4.211456e-02 9.465560e-01 -1.892989e-01
1.135000e+10 9.462102e-01 -1.921736e-01 1.252296e-02 4.481370e-02 1.259554e-02 4.511756e-02 9.456607e-01 -1.929332e-01
1.140000e+10 9.453171e-01 -1.958098e-01 1.331033e-02 4.781064e-02 1.339707e-02 4.810636e-02 9.447436e-01 -1.965535e-01
1.145000e+10 9.444015e-01 -1.994333e-01 1.411970e-02 5.079413e-02 1.422019e-02 5.108096e-02 9.438047e-01 -2.001598e-01
1.150000e+10 9.434637e-01 -2.030440e-01 1.495094e-02 5.376416e-02 1.506472e-02 5.404139e-02 9.428444e-01 -2.037523e-01
1.155000e+10 9.425037e-01 -2.066419e-01 1.580388e-02 5.672073e-02 1.593046e-02 5.698764e-02 9.418627e-01 -2.073308e-01
1.160000e+10 9.415217e-01 -2.102271e-01 1.667836e-02 5.966381e-02 1.681723e-02 5.991973e-02 9.408599e-01 -2.108955e-01
1.165000e+10 9.405177e-01 -2.137995e-01 1.757426e-02 6.259341e-02 1.772484e-02 6.283767e-02 9.398361e-01 -2.144463e-01
1.170000e+10 9.394920e-01 -2.173591e-01 1.849141e-02 6.550950e-02 1.865313e-02 6.574148e-02 9.387916e-01 -2.179833e-01
1.175000e+10 9.384446e-01 -2.209058e-01 1.942967e-02 6.841207e-02 1.960191e-02 6.863116e-02 9.377264e-01 -2.215065e-01
1.180000e+10 9.373756e-01 -2.244398e-01 2.038891e-02 7.130112e-02 2.057101e-02 7.150673e-02 9.366408e-01 -2.250160e-01
1.185000e+10 9.362853e-01 -2.279609e-01 2.136898e-02 7.417662e-02 2.156027e-02 7.436821e-02 9.355349e-01 -2.285117e-01
1.190000e+10 9.351735e-01 -2.314691e-01 2.236976e-02 7.703855e-02 2.256952e-02 7.721560e-02 9.344088e-01 -2.319937e-01
1.195000e+10 9.340406e-01 -2.349645e-01 2.339111e-02 7.988690e-02 2.359861e-02 8.004892e-02 9.332628e-01 -2.354621e-01
1.200000e+10 9.328865e-01 -2.384469e-01 2.443291e-02 8.272164e-02 2.464739e-02 8.286819e-02 9.320969e-01 -2.389168e-01
1.205000e+10 9.317115e-01 -2.419164e-01 2.549501e-02 8.554277e-02 2.571569e-02 8.567342e-02 9.309113e-01 -2.423579e-01
1.210000e+10 9.305155e-01 -2.453729e-01 2.657730e-02 8.835024e-02 2.680338e-02 8.846461e-02 9.297062e-01 -2.457854e-01
1.215000e+10 9.292988e-01 -2.488163e-01 2.767966e-02 9.114405e-02 2.791030e-02 9.124180e-02 9.284816e-01 -2.491994e-01
1.220000e+10 9.280613e-01 -2.522468e-01 2.880196e-02 9.392417e-02 2.903632e-02 9.400498e-02 9.272377e-01 -2.525999e-01
1.225000e+10 9.268033e-01 -2.556641e-01 2.994409e-02 9.669057e-02 3.018130e-02 9.675417e-02 9.259746e-01 -2.559868e-01
1.230000e+10 9.255247e-01 -2.590683e-01 3.110592e-02 9.944322e-02 3.134511e-02 9.948939e-02 9.246925e-01 -2.593603e-01
1.235000e+10 9.242257e-01 -2.624594e-01 3.228734e-02 1.021821e-01 3.252762e-02 1.022106e-01 9.233915e-01 -2.627203e-01
1.240000e+10 9.229065e-01 -2.658373e-01 3.348823e-02 1.049072e-01 3.372869e-02 1.049179e-01 9.220717e-01 -2.660668e-01
1.245000e+10 9.215670e-01 -2.692019e-01 3.470849e-02 1.076184e-01 3.494821e-02 1.076113e-01 9.207331e-01 -2.694000e-01
1.250000e+10 9.202074e-01 -2.725532e-01 3.594799e-02 1.103158e-01 3.618605e-02 1.102907e-01 9.193759e-01 -2.727198e-01
1.255000e+10 9.188278e-01 -2.758911e-01 3.720663e-02 1.129992e-01 3.744210e-02 1.129562e-01 9.180003e-01 -2.760262e-01
1.260000e+10 9.174282e-01 -2.792157e-01 3.848430e-02 1.156687e-01 3.871624e-02 1.156078e-01 9.166062e-01 -2.793193e-01
1.265000e+10 9.160088e-01 -2.825267e-01 3.978090e-02 1.183243e-01 4.000836e-02 1.182455e-01 9.151939e-01 -2.825990e-01
1.270000e+10 9.145697e-01 -2.858243e-01 4.109630e-02 1.209658e-01 4.131835e-02 1.208693e-01 9.137633e-01 -2.858654e-01
1.275000e+10 9.131109e-01 -2.891083e-01 4.243041e-02 1.235933e-01 4.264611e-02 1.234792e-01 9.123146e-01 -2.891186e-01
1.280000e+10 9.116326e-01 -2.923786e-01 4.378311e-02 1.262067e-01 4.399153e-02 1.260752e-01 9.108479e-01 -2.923584e-01
1.285000e+10 9.101348e-01 -2.956353e-01 4.515431e-02 1.288059e-01 4.535451e-02 1.286574e-01 9.093633e-01 -2.955850e-01
1.290000e+10 9.086177e-01 -2.988782e-01 4.654391e-02 1.313910e-01 4.673495e-02 1.312256e-01 9.078607e-01 -2.987983e-01
1.295000e+10 9.070812e-01 -3.021072e-01 4.795178e-02 1.339618e-01 4.813277e-02 1.337800e-01 9.063404e-01 -3.019983e-01
1.300000e+10 9.055256e-01 -3.053224e-01 4.937784e-02 1.365184e-01 4.954786e-02 1.363204e-01 9.048024e-01 -3.051851e-01
1.305000e+10 9.039509e-01 -3.085236e-01 5.082197e-02 1.390606e-01 5.098013e-02 1.388470e-01 9.032468e-01 -3.083586e-01
1.310000e+10 9.023573e-01 -3.117108e-01 5.228408e-02 1.415885e-01 5.242951e-02 1.413597e-01 9.016735e-01 -3.115188e-01
1.315000e+10 9.007447e-01 -3.148839e-01 5.376406e-02 1.441020e-01 5.389590e-02 1.438585e-01 9.000828e-01 -3.146658e-01
1.320000e+10 8.991134e-01 -3.180428e-01 5.526180e-02 1.466010e-01 5.537921e-02 1.463434e-01 8.984746e-01 -3.177996e-01
1.325000e+10 8.974633e-01 -3.211874e-01 5.677721e-02 1.490855e-01 5.687938e-02 1.488144e-01 8.968491e-01 -3.209201e-01
1.330000e+10 8.957947e-01 -3.243177e-01 5.831019e-02 1.515554e-01 5.839631e-02 1.512715e-01 8.952063e-01 -3.240273e-01
1.335000e+10 8.941076e-01 -3.274336e-01 5.986062e-02 1.540107e-01 5.992994e-02 1.537147e-01 8.935462e-01 -3.271212e-01
1.340000e+10 8.924021e-01 -3.305351e-01 6.142841e-02 1.564513e-01 6.148018e-02 1.561439e-01 8.918689e-01 -3.302019e-01
1.345000e+10 8.906784e-01 -3.336219e-01 6.301346e-02 1.588772e-01 6.304696e-02 1.585591e-01 8.901744e-01 -3.332692e-01
1.350000e+10 8.889365e-01 -3.366942e-01 6.461565e-02 1.612883e-01 6.463022e-02 1.609604e-01 8.884629e-01 -3.363232e-01
1.355000e+10 8.871765e-01 -3.397517e-01 6.623489e-02 1.636846e-01 6.622988e-02 1.633477e-01 8.867343e-01 -3.393638e-01
1.360000e+10 8.853985e-01 -3.427944e-01 6.787107e-02 1.660660e-01 6.784587e-02 1.657209e-01 8.849888e-01 -3.423911e-01
1.365000e+10 8.836027e-01 -3.458222e-01 6.952409e-02 1.684324e-01 6.947812e-02 1.680802e-01 8.832263e-01 -3.454049e-01
1.370000e+10 8.817892e-01 -3.488351e-01 7.119384e-02 1.707838e-01 7.112657e-02 1.704253e-01 8.814469e-01 -3.484053e-01
1.375000e+10 8.799580e-01 -3.518330e-01 7.288022e-02 1.731201e-01 7.279116e-02 1.727564e-01 8.796507e-01 -3.513923e-01
1.380000e+10 8.781093e-01 -3.548157e-01 7.458312e-02 1.754413e-01 7.447182e-02 1.750734e-01 8.778377e-01 -3.543658e-01
1.385000e+10 8.762433e-01 -3.577832e-01 7.630243e-02 1.777474e-01 7.616849e-02 1.773762e-01 8.760079e-01 -3.573257e-01
1.390000e+10 8.743600e-01 -3.607354e-01 7.803805e-02 1.800381e-01 7.788111e-02 1.796648e-01 8.741614e-01 -3.602721e-01
1.395000e+10 8.724595e-01 -3.636723e-01 7.978987e-02 1.823136e-01 7.960961e-02 1.819392e-01 8.722982e-01 -3.632048e-01
1.400000e+10 8.705420e-01 -3.665937e-01 8.155778e-02 1.845737e-01 8.135395e-02 1.841994e-01 8.704184e-01 -3.661239e-01
1.405000e+10 8.686076e-01 -3.694997e-01 8.334167e-02 1.868183e-01 8.311405e-02 1.864452e-01 8.685220e-01 -3.690292e-01
1.410000e+10 8.666564e-01 -3.723900e-01 8.514143e-02 1.890475e-01 8.488987e-02 1.886768e-01 8.666091e-01 -3.719208e-01
1.415000e+10 8.646886e-01 -3.752646e-01 8.695695e-02 1.912611e-01 8.668134e-02 1.908940e-01 8.646797e-01 -3.747986e-01
1.420000e+10 8.627042e-01 -3.781234e-01 8.878813e-02 1.934591e-01 8.848841e-02 1.930967e-01 8.627338e-01 -3.776625e-01
1.425000e+10 8.607035e-01 -3.809665e-01 9.063484e-02 1.956415e-01 9.031102e-02 1.952850e-01 8.607714e-01 -3.805125e-01
1.430000e+10 8.586864e-01 -3.837936e-01 9.249697e-02 1.978081e-01 9.214911e-02 1.974587e-01 8.587927e-01 -3.833485e-01
1.435000e+10 8.566533e-01 -3.866047e-01 9.437442e-02 1.999589e-01 9.400264e-02 1.996179e-01 8.567977e-01 -3.861704e-01
1.440000e+10 8.546041e-01 -3.893997e-01 9.626706e-02 2.020939e-01 9.587153e-02 2.017625e-01 8.547863e-01 -3.889782e-01
1.445000e+10 8.525391e-01 -3.921787e-01 9.817479e-02 2.042129e-01 9.775574e-02 2.038923e-01 8.527587e-01 -3.917718e-01
1.450000e+10 8.504584e-01 -3.949414e-01 1.000975e-01 2.063160e-01 9.965522e-02 2.060075e-01 8.507148e-01 -3.945511e-01
1.455000e+10 8.483621e-01 -3.976878e-01 1.020350e-01 2.084031e-01 1.015699e-01 2.081078e-01 8.486548e-01 -3.973161e-01
1.460000e+10 8.462504e-01 -4.004180e-01 1.039873e-01 2.104741e-01 1.034997e-01 2.101933e-01 8.465787e-01 -4.000666e-01
1.465000e+10 8.441234e-01 -4.031317e-01 1.059542e-01 2.125290e-01 1.054446e-01 2.122638e-01 8.444864e-01 -4.028026e-01
1.470000e+10 8.419812e-01 -4.058289e-01 1.079356e-01 2.145676e-01 1.074046e-01 2.143193e-01 8.423781e-01 -4.055240e-01
1.475000e+10 8.398240e-01 -4.085096e-01 1.099313e-01 2.165901e-01 1.093795e-01 2.163598e-01 8.402539e-01 -4.082307e-01
1.480000e+10 8.376520e-01 -4.111737e-01 1.119413e-01 2.185962e-01 1.113693e-01 2.183851e-01 8.381137e-01 -4.109226e-01
1.485000e+10 8.354652e-01 -4.138212e-01 1.139655e-01 2.205860e-01 1.133740e-01 2.203953e-01 8.359576e-01 -4.135997e-01
1.490000e+10 8.332639e-01 -4.164519e-01 1.160036e-01 2.225593e-01 1.153935e-01 2.223901e-01 8.337856e-01 -4.162618e-01
1.495000e+10 8.310481e-01 -4.190659e-01 1.180557e-01 2.245162e-01 1.174277e-01 2.243696e-01 8.315979e-01 -4.189088e-01
1.500000e+10 8.288181e-01 -4.216631e-01 1.201215e-01 2.264566e-01 1.194766e-01 2.263336e-01 8.293944e-01 -4.215407e-01
1.505000e+10 8.265740e-01 -4.242435e-01 1.222010e-01 2.283805e-01 1.215401e-01 2.282822e-01 8.271752e-01 -4.241573e-01
1.510000e+10 8.243159e-01 -4.268069e-01 1.242940e-01 2.302877e-01 1.236182e-01 2.302151e-01 8.249405e-01 -4.267585e-01
1.515000e+10 8.220440e-01 -4.293534e-01 1.264004e-01 2.321783e-01 1.257107e-01 2.321323e-01 8.226902e-01 -4.293442e-01
1.520000e+10 8.197585e-01 -4.318829e-01 1.285201e-01 2.340522e-01 1.278176e-01 2.340337e-01 8.204243e-01 -4.319144e-01
1.525000e+10 8.174594e-01 -4.343954e-01 1.306529e-01 2.359093e-01 1.299389e-01 2.359193e-01 8.181431e-01 -4.344688e-01
1.530000e+10 8.151470e-01 -4.368908e-01 1.327988e-01 2.377497e-01 1.320745e-01 2.377890e-01 8.158465e-01 -4.370075e-01
1.535000e+10 8.128214e-01 -4.393692e-01 1.349576e-01 2.395732e-01 1.342242e-01 2.396425e-01 8.135346e-01 -4.395302e-01
1.540000e+10 8.104827e-01 -4.418304e-01 1.371291e-01 2.413799e-01 1.363881e-01 2.414800e-01 8.112075e-01 -4.420368e-01
1.545000e+10 8.081312e-01 -4.442745e-01 1.393133e-01 2.431697e-01 1.385660e-01 2.433012e-01 8.088653e-01 -4.445273e-01
1.550000e+10 8.057669e-01 -4.467015e-01 1.415100e-01 2.449425e-01 1.407579e-01 2.451061e-01 8.065080e-01 -4.470016e-01
1.555000e+10 8.033900e-01 -4.491112e-01 1.437192e-01 2.466983e-01 1.429636e-01 2.468946e-01 8.041357e-01 -4.494594e-01
1.560000e+10 8.010006e-01 -4.515038e-01 1.459406e-01 2.484372e-01 1.451832e-01 2.486665e-01 8.017485e-01 -4.519007e-01
1.565000e+10 7.985990e-01 -4.538791e-01 1.481742e-01 2.501590e-01 1.474165e-01 2.504219e-01 7.993466e-01 -4.543253e-01
1.570000e+10 7.961852e-01 -4.562373e-01 1.504198e-01 2.518637e-01 1.496635e-01 2.521605e-01 7.969299e-01 -4.567332e-01
1.575000e+10 7.937594e-01 -4.585782e-01 1.526773e-01 2.535513e-01 1.519240e-01 2.538823e-01 7.944986e-01 -4.591242e-01
1.580000e+10 7.913217e-01 -4.609018e-01 1.549466e-01 2.552218e-01 1.541979e-01 2.555871e-01 7.920529e-01 -4.614982e-01
1.585000e+10 7.888724e-01 -4.632082e-01 1.572276e-01 2.568751e-01 1.564852e-01 2.572750e-01 7.895927e-01 -4.638550e-01
1.590000e+10 7.864115e-01 -4.654974e-01 1.595201e-01 2.585113e-01 1.587858e-01 2.589457e-01 7.871181e-01 -4.661945e-01
1.595000e+10 7.839391e-01 -4.677694e-01 1.618240e-01 2.601302e-01 1.610996e-01 2.605992e-01 7.846294e-01 -4.685167e-01
1.600000e+10 7.814555e-01 -4.700241e-01 1.641393e-01 2.617319e-01 1.634264e-01 2.622353e-01 7.821267e-01 -4.708213e-01
1.605000e+10 7.789608e-01 -4.722617e-01 1.664657e-01 2.633164e-01 1.657662e-01 2.638540e-01 7.796099e-01 -4.731082e-01
1.610000e+10 7.764550e-01 -4.744820e-01 1.688031e-01 2.648836e-01 1.681189e-01 2.654552e-01 7.770793e-01 -4.753774e-01
1.615000e+10 7.739383e-01 -4.766852e-01 1.711516e-01 2.664335e-01 1.704843e-01 2.670387e-01 7.745350e-01 -4.776286e-01
1.620000e+10 7.714109e-01 -4.788712e-01 1.735108e-01 2.679661e-01 1.728623e-01 2.686044e-01 7.719771e-01 -4.798618e-01
1.625000e+10 7.688729e-01 -4.810400e-01 1.758808e-01 2.694815e-01 1.752529e-01 2.701523e-01 7.694057e-01 -4.820768e-01
1.630000e+10 7.663244e-01 -4.831918e-01 1.782613e-01 2.709794e-01 1.776559e-01 2.716822e-01 7.668210e-01 -4.842735e-01
1.635000e+10 7.637655e-01 -4.853264e-01 1.806524e-01 2.724601e-01 1.800711e-01 2.731940e-01 7.642232e-01 -4.864519e-01
1.640000e+10 7.611964e-01 -4.874440e-01 1.830538e-01 2.739234e-01 1.824985e-01 2.746877e-01 7.616122e-01 -4.886116e-01
1.645000e+10 7.586171e-01 -4.895446e-01 1.854655e-01 2.753694e-01 1.849380e-01 2.761631e-01 7.589885e-01 -4.907527e-01
1.650000e+10 7.560278e-01 -4.916282e-01 1.878873e-01 2.767980e-01 1.873894e-01 2.776201e-01 7.563519e-01 -4.928751e-01
1.655000e+10 7.534286e-01 -4.936948e-01 1.903192e-01 2.782092e-01 1.898525e-01 2.790586e-01 7.537028e-01 -4.949785e-01
1.660000e+10 7.508196e-01 -4.957445e-01 1.927610e-01 2.796030e-01 1.923273e-01 2.804785e-01 7.510413e-01 -4.970629e-01
1.665000e+10 7.482009e-01 -4.977773e-01 1.952127e-01 2.809795e-01 1.948136e-01 2.818797e-01 7.483675e-01 -4.991281e-01
1.670000e+10 7.455726e-01 -4.997933e-01 1.976741e-01 2.823386e-01 1.973112e-01 2.832622e-01 7.456816e-01 -5.011741e-01
1.675000e+10 7.429347e-01 -5.017925e-01 2.001451e-01 2.836804e-01 1.998201e-01 2.846257e-01 7.429838e-01 -5.032008e-01
1.680000e+10 7.402874e-01 -5.037749e-01 2.026257e-01 2.850047e-01 2.023400e-01 2.859703e-01 7.402743e-01 -5.052079e-01
1.685000e+10 7.376308e-01 -5.057406e-01 2.051157e-01 2.863117e-01 2.048709e-01 2.872958e-01 7.375532e-01 -5.071955e-01
1.690000e+10 7.349649e-01 -5.076897e-01 2.076151e-01 2.876013e-01 2.074125e-01 2.886021e-01 7.348208e-01 -5.091635e-01
1.695000e+10 7.322898e-01 -5.096221e-01 2.101237e-01 2.888735e-01 2.099647e-01 2.898892e-01 7.320771e-01 -5.111116e-01
1.700000e+10 7.296056e-01 -5.115380e-01 2.126415e-01 2.901283e-01 2.125274e-01 2.911569e-01 7.293225e-01 -5.130399e-01
1.705000e+10 7.269124e-01 -5.134374e-01 2.151684e-01 2.913658e-01 2.151004e-01 2.924052e-01 7.265571e-01 -5.149482e-01
1.710000e+10 7.242101e-01 -5.153202e-01 2.177043e-01 2.925858e-01 2.176835e-01 2.936339e-01 7.237811e-01 -5.168364e-01
1.715000e+10 7.214989e-01 -5.171867e-01 2.202491e-01 2.937886e-01 2.202765e-01 2.948431e-01 7.209947e-01 -5.187045e-01
1.720000e+10 7.187789e-01 -5.190368e-01 2.228028e-01 2.949739e-01 2.228794e-01 2.960325e-01 7.181981e-01 -5.205524e-01
1.725000e+10 7.160500e-01 -5.208706e-01 2.253652e-01 2.961419e-01 2.254918e-01 2.972023e-01 7.153915e-01 -5.223800e-01
1.730000e+10 7.133123e-01 -5.226880e-01 2.279363e-01 2.972925e-01 2.281137e-01 2.983521e-01 7.125752e-01 -5.241872e-01
1.735000e+10 7.105659e-01 -5.244893e-01 2.305161e-01 2.984258e-01 2.307449e-01 2.994821e-01 7.097493e-01 -5.259740e-01
1.740000e+10 7.078107e-01 -5.262743e-01 2.331044e-01 2.995417e-01 2.333851e-01 3.005921e-01 7.069140e-01 -5.277403e-01
1.745000e+10 7.050468e-01 -5.280432e-01 2.357011e-01 3.006402e-01 2.360342e-01 3.016821e-01 7.040697e-01 -5.294861e-01
1.750000e+10 7.022742e-01 -5.297959e-01 2.383063e-01 3.017214e-01 2.386921e-01 3.027519e-01 7.012165e-01 -5.312113e-01
1.755000e+10 6.994930e-01 -5.315326e-01 2.409198e-01 3.027853e-01 2.413584e-01 3.038017e-01 6.983546e-01 -5.329158e-01
1.760000e+10 6.967032e-01 -5.332533e-01 2.435417e-01 3.038318e-01 2.440331e-01 3.048312e-01 6.954842e-01 -5.345996e-01
1.765000e+10 6.939046e-01 -5.349579e-01 2.461718e-01 3.048609e-01 2.467160e-01 3.058404e-01 6.926057e-01 -5.362627e-01
1.770000e+10 6.910975e-01 -5.366466e-01 2.488101e-01 3.058726e-01 2.494068e-01 3.068294e-01 6.897192e-01 -5.379051e-01
1.775000e+10 6.882816e-01 -5.383193e-01 2.514565e-01 3.068670e-01 2.521054e-01 3.077980e-01 6.868250e-01 -5.395267e-01
1.780000e+10 6.854572e-01 -5.399761e-01 2.541110e-01 3.078440e-01 2.548115e-01 3.087463e-01 6.839232e-01 -5.411275e-01
1.785000e+10 6.826240e-01 -5.416170e-01 2.567736e-01 3.088037e-01 2.575250e-01 3.096741e-01 6.810142e-01 -5.427076e-01
1.790000e+10 6.797821e-01 -5.432420e-01 2.594442e-01 3.097459e-01 2.602457e-01 3.105815e-01 6.780982e-01 -5.442668e-01
1.795000e+10 6.769316e-01 -5.448511e-01 2.621227e-01 3.106707e-01 2.629733e-01 3.114685e-01 6.751753e-01 -5.458053e-01
1.800000e+10 6.740722e-01 -5.464443e-01 2.648092e-01 3.115782e-01 2.657077e-01 3.123350e-01 6.722459e-01 -5.473230e-01
1.805000e+10 6.712041e-01 -5.480217e-01 2.675036e-01 3.124681e-01 2.684487e-01 3.131810e-01 6.693102e-01 -5.488200e-01
1.810000e+10 6.683272e-01 -5.495832e-01 2.702058e-01 3.133406e-01 2.711961e-01 3.140065e-01 6.663684e-01 -5.502963e-01
1.815000e+10 6.654414e-01 -5.511288e-01 2.729159e-01 3.141957e-01 2.739496e-01 3.148115e-01 6.634208e-01 -5.517518e-01
1.820000e+10 6.625467e-01 -5.526585e-01 2.756337e-01 3.150332e-01 2.767091e-01 3.155960e-01 6.604676e-01 -5.531868e-01
1.825000e+10 6.596431e-01 -5.541723e-01 2.783594e-01 3.158532e-01 2.794744e-01 3.163600e-01 6.575090e-01 -5.546011e-01
1.830000e+10 6.567305e-01 -5.556701e-01 2.810928e-01 3.166557e-01 2.822452e-01 3.171035e-01 6.545452e-01 -5.559949e-01
1.835000e+10 6.538088e-01 -5.571520e-01 2.838339e-01 3.174405e-01 2.850214e-01 3.178266e-01 6.515766e-01 -5.573683e-01
1.840000e+10 6.508780e-01 -5.586178e-01 2.865827e-01 3.182077e-01 2.878028e-01 3.185293e-01 6.486033e-01 -5.587213e-01
1.845000e+10 6.479380e-01 -5.600675e-01 2.893393e-01 3.189573e-01 2.905892e-01 3.192116e-01 6.456255e-01 -5.600540e-01
1.850000e+10 6.449888e-01 -5.615011e-01 2.921034e-01 3.196891e-01 2.933803e-01 3.198735e-01 6.426436e-01 -5.613664e-01
1.855000e+10 6.420302e-01 -5.629185e-01 2.948753e-01 3.204031e-01 2.961760e-01 3.205151e-01 6.396576e-01 -5.626588e-01
1.860000e+10 6.390624e-01 -5.643197e-01 2.976548e-01 3.210994e-01 2.989761e-01 3.211364e-01 6.366678e-01 -5.639312e-01
1.865000e+10 6.360850e-01 -5.657045e-01 3.004419e-01 3.217777e-01 3.017804e-01 3.217375e-01 6.336745e-01 -5.651836e-01
1.870000e+10 6.330982e-01 -5.670728e-01 3.032366e-01 3.224381e-01 3.045887e-01 3.223185e-01 6.306779e-01 -5.664163e-01
1.875000e+10 6.301018e-01 -5.684246e-01 3.060390e-01 3.230805e-01 3.074008e-01 3.228794e-01 6.276780e-01 -5.676294e-01
1.880000e+10 6.270958e-01 -5.697598e-01 3.088489e-01 3.237048e-01 3.102166e-01 3.234202e-01 6.246753e-01 -5.688230e-01
1.885000e+10 6.240800e-01 -5.710782e-01 3.116664e-01 3.243110e-01 3.130358e-01 3.239411e-01 6.216697e-01 -5.699973e-01
1.890000e+10 6.210545e-01 -5.723797e-01 3.144914e-01 3.248989e-01 3.158583e-01 3.244422e-01 6.186616e-01 -5.711524e-01
1.895000e+10 6.180192e-01 -5.736642e-01 3.173240e-01 3.254685e-01 3.186840e-01 3.249235e-01 6.156512e-01 -5.722884e-01
1.900000e+10 6.149739e-01 -5.749315e-01 3.201642e-01 3.260197e-01 3.215126e-01 3.253851e-01 6.126385e-01 -5.734057e-01
1.905000e+10 6.119187e-01 -5.761815e-01 3.230118e-01 3.265524e-01 3.243439e-01 3.258271e-01 6.096237e-01 -5.745042e-01
1.910000e+10 6.088535e-01 -5.774140e-01 3.258670e-01 3.270665e-01 3.271779e-01 3.262497e-01 6.066071e-01 -5.755843e-01
1.915000e+10 6.057781e-01 -5.786289e-01 3.287296e-01 3.275619e-01 3.300144e-01 3.266529e-01 6.035887e-01 -5.766461e-01
1.920000e+10 6.026927e-01 -5.798259e-01 3.315998e-01 3.280384e-01 3.328533e-01 3.270369e-01 6.005687e-01 -5.776898e-01
1.925000e+10 5.995970e-01 -5.810049e-01 3.344774e-01 3.284961e-01 3.356943e-01 3.274018e-01 5.975473e-01 -5.787157e-01
1.930000e+10 5.964912e-01 -5.821656e-01 3.373624e-01 3.289347e-01 3.385373e-01 3.277476e-01 5.945245e-01 -5.797239e-01
1.935000e+10 5.933751e-01 -5.833079e-01 3.402548e-01 3.293540e-01 3.413824e-01 3.280747e-01 5.915005e-01 -5.807147e-01
1.940000e+10 5.902487e-01 -5.844315e-01 3.431546e-01 3.297541e-01 3.442292e-01 3.283830e-01 5.884754e-01 -5.816882e-01
1.945000e+10 5.871119e-01 -5.855361e-01 3.460618e-01 3.301347e-01 3.470777e-01 3.286727e-01 5.854492e-01 -5.826448e-01
1.950000e+10 5.839649e-01 -5.866217e-01 3.489763e-01 3.304958e-01 3.499278e-01 3.289440e-01 5.824220e-01 -5.835847e-01
1.955000e+10 5.808075e-01 -5.876878e-01 3.518980e-01 3.308370e-01 3.527794e-01 3.291971e-01 5.793940e-01 -5.845081e-01
1.960000e+10 5.776398e-01 -5.887342e-01 3.548270e-01 3.311584e-01 3.556324e-01 3.294320e-01 5.763651e-01 -5.854153e-01
1.965000e+10 5.744617e-01 -5.897607e-01 3.577633e-01 3.314598e-01 3.584868e-01 3.296490e-01 5.733354e-01 -5.863065e-01
1.970000e+10 5.712733e-01 -5.907670e-01 3.607066e-01 3.317409e-01 3.613424e-01 3.298481e-01 5.703049e-01 -5.871820e-01
1.975000e+10 5.680747e-01 -5.917527e-01 3.636571e-01 3.320016e-01 3.641992e-01 3.300296e-01 5.672736e-01 -5.880420e-01
1.980000e+10 5.648658e-01 -5.927176e-01 3.666145e-01 3.322418e-01 3.670571e-01 3.301937e-01 5.642416e-01 -5.888868e-01
1.985000e+10 5.616467e-01 -5.936614e-01 3.695790e-01 3.324612e-01 3.699162e-01 3.303405e-01 5.612088e-01 -5.897167e-01
1.990000e+10 5.584176e-01 -5.945838e-01 3.725503e-01 3.326598e-01 3.727763e-01 3.304701e-01 5.581751e-01 -5.905319e-01
1.995000e+10 5.551784e-01 -5.954844e-01 3.755285e-01 3.328372e-01 3.756375e-01 3.305828e-01 5.551406e-01 -5.913327e-01
2.000000e+10 5.519292e-01 -5.963629e-01 3.785134e-01 3.329933e-01 3.784997e-01 3.306787e-01 5.521051e-01 -5.921194e-01
