#   Hz   S  RI   R   50
!
0.000000e+00 4.335058e-02 0.000000e+00 9.541730e-01 0.000000e+00 9.541261e-01 0.000000e+00 4.332291e-02 0.000000e+00
3.500000e+07 4.343913e-02 8.956986e-03 9.540523e-01 -1.035561e-02 9.540058e-01 -1.034924e-02 4.341176e-02 8.959553e-03
7.000000e+07 4.370471e-02 1.790969e-02 9.536903e-01 -2.070145e-02 9.536452e-01 -2.068884e-02 4.367826e-02 1.791476e-02
1.050000e+08 4.414715e-02 2.685382e-02 9.530882e-01 -3.102778e-02 9.530453e-01 -3.100920e-02 4.412222e-02 2.686126e-02
1.400000e+08 4.476616e-02 3.578513e-02 9.522476e-01 -4.132504e-02 9.522077e-01 -4.130085e-02 4.474332e-02 3.579474e-02
1.750000e+08 4.556131e-02 4.469933e-02 9.511706e-01 -5.158382e-02 9.511346e-01 -5.155453e-02 4.554114e-02 4.471086e-02
2.100000e+08 4.653208e-02 5.359219e-02 9.498604e-01 -6.179498e-02 9.498287e-01 -6.176118e-02 4.651510e-02 5.360533e-02
2.450000e+08 4.767784e-02 6.245949e-02 9.483202e-01 -7.194968e-02 9.482936e-01 -7.191205e-02 4.766455e-02 6.247385e-02
2.800000e+08 4.899781e-02 7.129701e-02 9.465540e-01 -8.203943e-02 9.465329e-01 -8.199874e-02 4.898867e-02 7.131217e-02
3.150000e+08 5.049114e-02 8.010058e-02 9.445665e-01 -9.205616e-02 9.445512e-01 -9.201321e-02 5.048655e-02 8.011607e-02
3.500000e+08 5.215686e-02 8.886604e-02 9.423624e-01 -1.019922e-01 9.423532e-01 -1.019478e-01 5.215718e-02 8.888133e-02
3.850000e+08 5.399387e-02 9.758927e-02 9.399470e-01 -1.118404e-01 9.399440e-01 -1.117955e-01 5.399941e-02 9.760380e-02
4.200000e+08 5.600099e-02 1.062662e-01 9.373261e-01 -1.215940e-01 9.373292e-01 -1.215494e-01 5.601199e-02 1.062793e-01
4.550000e+08 5.817694e-02 1.148927e-01 9.345055e-01 -1.312469e-01 9.345147e-01 -1.312035e-01 5.819357e-02 1.149039e-01
4.900000e+08 6.052031e-02 1.234647e-01 9.314914e-01 -1.407934e-01 9.315063e-01 -1.407520e-01 6.054269e-02 1.234733e-01
5.250000e+08 6.302961e-02 1.319784e-01 9.282900e-01 -1.502283e-01 9.283102e-01 -1.501897e-01 6.305777e-02 1.319837e-01
5.600000e+08 6.570323e-02 1.404296e-01 9.249077e-01 -1.595471e-01 9.249329e-01 -1.595119e-01 6.573714e-02 1.404309e-01
5.950000e+08 6.853947e-02 1.488145e-01 9.213512e-01 -1.687455e-01 9.213807e-01 -1.687144e-01 6.857903e-02 1.488112e-01
6.300000e+08 7.153653e-02 1.571291e-01 9.176268e-01 -1.778200e-01 9.176600e-01 -1.777935e-01 7.158156e-02 1.571206e-01
6.650000e+08 7.469249e-02 1.653696e-01 9.137410e-01 -1.867675e-01 9.137772e-01 -1.867460e-01 7.474273e-02 1.653552e-01
7.000000e+08 7.800533e-02 1.735321e-01 9.097002e-01 -1.955851e-01 9.097386e-01 -1.955690e-01 7.806047e-02 1.735112e-01
7.350000e+08 8.147292e-02 1.816129e-01 9.055106e-01 -2.042707e-01 9.055506e-01 -2.042601e-01 8.153257e-02 1.815849e-01
7.700000e+08 8.509302e-02 1.896082e-01 9.011785e-01 -2.128224e-01 9.012192e-01 -2.128174e-01 8.515672e-02 1.895726e-01
8.050000e+08 8.886328e-02 1.975142e-01 8.967098e-01 -2.212385e-01 8.967504e-01 -2.212392e-01 8.893050e-02 1.974705e-01
8.400000e+08 9.278121e-02 2.053273e-01 8.921103e-01 -2.295179e-01 8.921500e-01 -2.295241e-01 9.285140e-02 2.052751e-01
8.750000e+08 9.684424e-02 2.130439e-01 8.873856e-01 -2.376597e-01 8.874237e-01 -2.376712e-01 9.691676e-02 2.129827e-01
9.100000e+08 1.010496e-01 2.206604e-01 8.825411e-01 -2.456633e-01 8.825769e-01 -2.456796e-01 1.011238e-01 2.205900e-01
9.450000e+08 1.053945e-01 2.281733e-01 8.775819e-01 -2.535281e-01 8.776148e-01 -2.535489e-01 1.054697e-01 2.280934e-01
9.800000e+08 1.098760e-01 2.355792e-01 8.725129e-01 -2.612538e-01 8.725423e-01 -2.612788e-01 1.099514e-01 2.354897e-01
1.015000e+09 1.144909e-01 2.428746e-01 8.673389e-01 -2.688406e-01 8.673644e-01 -2.688690e-01 1.145658e-01 2.427754e-01
1.050000e+09 1.192360e-01 2.500563e-01 8.620643e-01 -2.762882e-01 8.620855e-01 -2.763195e-01 1.193096e-01 2.499474e-01
1.085000e+09 1.241079e-01 2.571211e-01 8.566934e-01 -2.835969e-01 8.567100e-01 -2.836304e-01 1.241795e-01 2.570026e-01
1.120000e+09 1.291031e-01 2.640659e-01 8.512304e-01 -2.907668e-01 8.512421e-01 -2.908018e-01 1.291720e-01 2.639380e-01
1.155000e+09 1.342180e-01 2.708878e-01 8.456790e-01 -2.977982e-01 8.456858e-01 -2.978341e-01 1.342834e-01 2.707507e-01
1.190000e+09 1.394488e-01 2.775837e-01 8.400430e-01 -3.046913e-01 8.400449e-01 -3.047274e-01 1.395100e-01 2.774379e-01
1.225000e+09 1.447916e-01 2.841512e-01 8.343259e-01 -3.114465e-01 8.343230e-01 -3.114822e-01 1.448480e-01 2.839968e-01
1.260000e+09 1.502424e-01 2.905874e-01 8.285312e-01 -3.180640e-01 8.285236e-01 -3.180985e-01 1.502933e-01 2.904252e-01
1.295000e+09 1.557970e-01 2.968900e-01 8.226621e-01 -3.245442e-01 8.226501e-01 -3.245769e-01 1.558419e-01 2.967204e-01
1.330000e+09 1.614512e-01 3.030568e-01 8.167218e-01 -3.308871e-01 8.167057e-01 -3.309176e-01 1.614896e-01 3.028804e-01
1.365000e+09 1.672007e-01 3.090855e-01 8.107135e-01 -3.370932e-01 8.106937e-01 -3.371209e-01 1.672321e-01 3.089031e-01
1.400000e+09 1.730409e-01 3.149744e-01 8.046401e-01 -3.431626e-01 8.046170e-01 -3.431871e-01 1.730651e-01 3.147865e-01
1.435000e+09 1.789673e-01 3.207216e-01 7.985045e-01 -3.490955e-01 7.984788e-01 -3.491164e-01 1.789840e-01 3.205291e-01
1.470000e+09 1.849754e-01 3.263257e-01 7.923098e-01 -3.548921e-01 7.922819e-01 -3.549091e-01 1.849844e-01 3.261293e-01
1.505000e+09 1.910605e-01 3.317853e-01 7.860588e-01 -3.605524e-01 7.860292e-01 -3.605654e-01 1.910617e-01 3.315859e-01
1.540000e+09 1.972179e-01 3.370993e-01 7.797543e-01 -3.660767e-01 7.797237e-01 -3.660855e-01 1.972113e-01 3.368976e-01
1.575000e+09 2.034428e-01 3.422668e-01 7.733994e-01 -3.714650e-01 7.733683e-01 -3.714695e-01 2.034285e-01 3.420636e-01
1.610000e+09 2.097304e-01 3.472873e-01 7.669967e-01 -3.767175e-01 7.669658e-01 -3.767178e-01 2.097086e-01 3.470833e-01
1.645000e+09 2.160761e-01 3.521601e-01 7.605493e-01 -3.818342e-01 7.605190e-01 -3.818305e-01 2.160471e-01 3.519562e-01
1.680000e+09 2.224751e-01 3.568852e-01 7.540600e-01 -3.868155e-01 7.540309e-01 -3.868079e-01 2.224392e-01 3.566819e-01
1.715000e+09 2.289227e-01 3.614625e-01 7.475317e-01 -3.916613e-01 7.475043e-01 -3.916501e-01 2.288803e-01 3.612605e-01
1.750000e+09 2.354142e-01 3.658922e-01 7.409674e-01 -3.963721e-01 7.409422e-01 -3.963575e-01 2.353658e-01 3.656922e-01
1.785000e+09 2.419450e-01 3.701748e-01 7.343700e-01 -4.009479e-01 7.343473e-01 -4.009303e-01 2.418912e-01 3.699773e-01
1.820000e+09 2.485107e-01 3.743109e-01 7.277426e-01 -4.053892e-01 7.277227e-01 -4.053691e-01 2.484520e-01 3.741163e-01
1.855000e+09 2.551067e-01 3.783014e-01 7.210880e-01 -4.096964e-01 7.210713e-01 -4.096741e-01 2.550439e-01 3.781101e-01
1.890000e+09 2.617288e-01 3.821474e-01 7.144094e-01 -4.138698e-01 7.143960e-01 -4.138459e-01 2.616626e-01 3.819596e-01
1.925000e+09 2.683728e-01 3.858500e-01 7.077097e-01 -4.179102e-01 7.076998e-01 -4.178851e-01 2.683038e-01 3.856660e-01
1.960000e+09 2.750346e-01 3.894106e-01 7.009919e-01 -4.218180e-01 7.009856e-01 -4.217922e-01 2.749636e-01 3.892306e-01
1.995000e+09 2.817102e-01 3.928309e-01 6.942591e-01 -4.255942e-01 6.942563e-01 -4.255681e-01 2.816380e-01 3.926548e-01
2.030000e+09 2.883960e-01 3.961125e-01 6.875141e-01 -4.292393e-01 6.875149e-01 -4.292136e-01 2.883232e-01 3.959403e-01
2.065000e+09 2.950883e-01 3.992573e-01 6.807601e-01 -4.327545e-01 6.807642e-01 -4.327294e-01 2.950157e-01 3.990888e-01
2.100000e+09 3.017837e-01 4.022672e-01 6.739998e-01 -4.361407e-01 6.740072e-01 -4.361168e-01 3.017119e-01 4.021022e-01
2.135000e+09 3.084788e-01 4.051443e-01 6.672363e-01 -4.393991e-01 6.672466e-01 -4.393767e-01 3.084085e-01 4.049825e-01
2.170000e+09 3.151706e-01 4.078908e-01 6.604722e-01 -4.425308e-01 6.604853e-01 -4.425103e-01 3.151024e-01 4.077318e-01
2.205000e+09 3.218562e-01 4.105088e-01 6.537105e-01 -4.455373e-01 6.537260e-01 -4.455190e-01 3.217906e-01 4.103523e-01
2.240000e+09 3.285327e-01 4.130007e-01 6.469538e-01 -4.484198e-01 6.469713e-01 -4.484040e-01 3.284702e-01 4.128460e-01
2.275000e+09 3.351977e-01 4.153688e-01 6.402048e-01 -4.511800e-01 6.402239e-01 -4.511668e-01 3.351387e-01 4.152155e-01
2.310000e+09 3.418487e-01 4.176154e-01 6.334659e-01 -4.538194e-01 6.334863e-01 -4.538090e-01 3.417935e-01 4.174629e-01
2.345000e+09 3.484835e-01 4.197429e-01 6.267397e-01 -4.563397e-01 6.267610e-01 -4.563322e-01 3.484324e-01 4.195906e-01
2.380000e+09 3.551000e-01 4.217538e-01 6.200286e-01 -4.587425e-01 6.200504e-01 -4.587380e-01 3.550532e-01 4.216010e-01
2.415000e+09 3.616963e-01 4.236504e-01 6.133348e-01 -4.610298e-01 6.133567e-01 -4.610283e-01 3.616538e-01 4.234964e-01
2.450000e+09 3.682706e-01 4.254350e-01 6.066605e-01 -4.632033e-01 6.066821e-01 -4.632047e-01 3.682326e-01 4.252793e-01
2.485000e+09 3.748214e-01 4.271100e-01 6.000078e-01 -4.652651e-01 6.000287e-01 -4.652692e-01 3.747877e-01 4.269519e-01
2.520000e+09 3.813471e-01 4.286777e-01 5.933786e-01 -4.672169e-01 5.933985e-01 -4.672237e-01 3.813175e-01 4.285165e-01
2.555000e+09 3.878464e-01 4.301402e-01 5.867748e-01 -4.690608e-01 5.867934e-01 -4.690700e-01 3.878208e-01 4.299754e-01
2.590000e+09 3.943181e-01 4.314999e-01 5.801983e-01 -4.707989e-01 5.802152e-01 -4.708103e-01 3.942961e-01 4.313309e-01
2.625000e+09 4.007609e-01 4.327588e-01 5.736505e-01 -4.724331e-01 5.736656e-01 -4.724464e-01 4.007423e-01 4.325852e-01
2.660000e+09 4.071740e-01 4.339190e-01 5.671331e-01 -4.739654e-01 5.671461e-01 -4.739803e-01 4.071583e-01 4.337403e-01
2.695000e+09 4.135562e-01 4.349826e-01 5.606475e-01 -4.753980e-01 5.606583e-01 -4.754142e-01 4.135430e-01 4.347983e-01
2.730000e+09 4.199068e-01 4.359514e-01 5.541951e-01 -4.767328e-01 5.542035e-01 -4.767500e-01 4.198956e-01 4.357613e-01
2.765000e+09 4.262250e-01 4.368274e-01 5.477771e-01 -4.779718e-01 5.477830e-01 -4.779898e-01 4.262152e-01 4.366311e-01
2.800000e+09 4.325099e-01 4.376124e-01 5.413946e-01 -4.791172e-01 5.413981e-01 -4.791355e-01 4.325011e-01 4.374097e-01
2.835000e+09 4.387610e-01 4.383080e-01 5.350488e-01 -4.801708e-01 5.350498e-01 -4.801891e-01 4.387524e-01 4.380989e-01
2.870000e+09 4.449774e-01 4.389160e-01 5.287405e-01 -4.811347e-01 5.287392e-01 -4.811527e-01 4.449687e-01 4.387004e-01
2.905000e+09 4.511587e-01 4.394380e-01 5.224708e-01 -4.820107e-01 5.224672e-01 -4.820281e-01 4.511491e-01 4.392159e-01
2.940000e+09 4.573041e-01 4.398756e-01 5.162404e-01 -4.828008e-01 5.162346e-01 -4.828173e-01 4.572932e-01 4.396470e-01
2.975000e+09 4.634132e-01 4.402302e-01 5.100500e-01 -4.835068e-01 5.100423e-01 -4.835222e-01 4.634004e-01 4.399954e-01
3.010000e+09 4.694853e-01 4.405033e-01 5.039005e-01 -4.841307e-01 5.038909e-01 -4.841447e-01 4.694701e-01 4.402625e-01
3.045000e+09 4.755199e-01 4.406963e-01 4.977924e-01 -4.846741e-01 4.977813e-01 -4.846865e-01 4.755018e-01 4.404497e-01
3.080000e+09 4.815164e-01 4.408106e-01 4.917263e-01 -4.851388e-01 4.917138e-01 -4.851495e-01 4.814950e-01 4.405586e-01
3.115000e+09 4.874743e-01 4.408475e-01 4.857027e-01 -4.855266e-01 4.856892e-01 -4.855354e-01 4.874491e-01 4.405905e-01
3.150000e+09 4.933930e-01 4.408084e-01 4.797222e-01 -4.858391e-01 4.797078e-01 -4.858460e-01 4.933638e-01 4.405467e-01
3.185000e+09 4.992719e-01 4.406944e-01 4.737851e-01 -4.860780e-01 4.737702e-01 -4.860828e-01 4.992384e-01 4.404286e-01
3.220000e+09 5.051105e-01 4.405069e-01 4.678919e-01 -4.862448e-01 4.678767e-01 -4.862475e-01 5.050725e-01 4.402374e-01
3.255000e+09 5.109082e-01 4.402471e-01 4.620430e-01 -4.863411e-01 4.620278e-01 -4.863418e-01 5.108655e-01 4.399745e-01
3.290000e+09 5.166645e-01 4.399162e-01 4.562387e-01 -4.863685e-01 4.562238e-01 -4.863671e-01 5.166170e-01 4.396410e-01
3.325000e+09 5.223787e-01 4.395156e-01 4.504794e-01 -4.863283e-01 4.504650e-01 -4.863251e-01 5.223265e-01 4.392382e-01
3.360000e+09 5.280503e-01 4.390463e-01 4.447653e-01 -4.862221e-01 4.447517e-01 -4.862171e-01 5.279933e-01 4.387673e-01
3.395000e+09 5.336787e-01 4.385097e-01 4.390968e-01 -4.860513e-01 4.390841e-01 -4.860446e-01 5.336171e-01 4.382296e-01
3.430000e+09 5.392633e-01 4.379070e-01 4.334741e-01 -4.858173e-01 4.334626e-01 -4.858091e-01 5.391973e-01 4.376263e-01
3.465000e+09 5.448036e-01 4.372394e-01 4.278975e-01 -4.855215e-01 4.278873e-01 -4.855119e-01 5.447333e-01 4.369585e-01
3.500000e+09 5.502990e-01 4.365083e-01 4.223671e-01 -4.851651e-01 4.223584e-01 -4.851544e-01 5.502247e-01 4.362277e-01
3.535000e+09 5.557489e-01 4.357149e-01 4.168833e-01 -4.847495e-01 4.168762e-01 -4.847379e-01 5.556710e-01 4.354350e-01
3.570000e+09 5.611528e-01 4.348606e-01 4.114463e-01 -4.842761e-01 4.114408e-01 -4.842638e-01 5.610717e-01 4.345816e-01
3.605000e+09 5.665103e-01 4.339465e-01 4.060561e-01 -4.837461e-01 4.060524e-01 -4.837333e-01 5.664263e-01 4.336688e-01
3.640000e+09 5.718207e-01 4.329742e-01 4.007132e-01 -4.831607e-01 4.007112e-01 -4.831476e-01 5.717344e-01 4.326980e-01
3.675000e+09 5.770838e-01 4.319449e-01 3.954175e-01 -4.825212e-01 3.954172e-01 -4.825082e-01 5.769955e-01 4.316704e-01
3.710000e+09 5.822990e-01 4.308600e-01 3.901693e-01 -4.818290e-01 3.901707e-01 -4.818161e-01 5.822092e-01 4.305872e-01
3.745000e+09 5.874659e-01 4.297209e-01 3.849687e-01 -4.810851e-01 3.849718e-01 -4.810727e-01 5.873751e-01 4.294500e-01
3.780000e+09 5.925842e-01 4.285289e-01 3.798158e-01 -4.802908e-01 3.798205e-01 -4.802790e-01 5.924929e-01 4.282599e-01
3.815000e+09 5.976535e-01 4.272856e-01 3.747108e-01 -4.794473e-01 3.747169e-01 -4.794364e-01 5.975623e-01 4.270184e-01
3.850000e+09 6.026737e-01 4.259923e-01 3.696538e-01 -4.785559e-01 3.696612e-01 -4.785459e-01 6.025829e-01 4.257267e-01
3.885000e+09 6.076444e-01 4.246503e-01 3.646448e-01 -4.776176e-01 3.646534e-01 -4.776088e-01 6.075545e-01 4.243863e-01
3.920000e+09 6.125656e-01 4.232612e-01 3.596840e-01 -4.766338e-01 3.596935e-01 -4.766262e-01 6.124770e-01 4.229985e-01
3.955000e+09 6.174369e-01 4.218264e-01 3.547713e-01 -4.756055e-01 3.547817e-01 -4.755993e-01 6.173500e-01 4.215647e-01
3.990000e+09 6.222584e-01 4.203472e-01 3.499068e-01 -4.745340e-01 3.499178e-01 -4.745292e-01 6.221736e-01 4.200862e-01
4.025000e+09 6.270301e-01 4.188251e-01 3.450905e-01 -4.734203e-01 3.451019e-01 -4.734170e-01 6.269476e-01 4.185644e-01
4.060000e+09 6.317518e-01 4.172614e-01 3.403225e-01 -4.722657e-01 3.403341e-01 -4.722639e-01 6.316720e-01 4.170007e-01
4.095000e+09 6.364238e-01 4.156576e-01 3.356026e-01 -4.710713e-01 3.356142e-01 -4.710710e-01 6.363468e-01 4.153964e-01
4.130000e+09 6.410461e-01 4.140149e-01 3.309307e-01 -4.698382e-01 3.309422e-01 -4.698394e-01 6.409721e-01 4.137528e-01
4.165000e+09 6.456188e-01 4.123347e-01 3.263070e-01 -4.685675e-01 3.263181e-01 -4.685701e-01 6.455480e-01 4.120712e-01
4.200000e+09 6.501422e-01 4.106182e-01 3.217311e-01 -4.672603e-01 3.217417e-01 -4.672643e-01 6.500745e-01 4.103530e-01
4.235000e+09 6.546164e-01 4.088668e-01 3.172031e-01 -4.659177e-01 3.172130e-01 -4.659230e-01 6.545519e-01 4.085993e-01
4.270000e+09 6.590419e-01 4.070817e-01 3.127226e-01 -4.645408e-01 3.127317e-01 -4.645473e-01 6.589804e-01 4.068115e-01
4.305000e+09 6.634188e-01 4.052641e-01 3.082897e-01 -4.631307e-01 3.082979e-01 -4.631381e-01 6.633603e-01 4.049907e-01
4.340000e+09 6.677475e-01 4.034150e-01 3.039041e-01 -4.616883e-01 3.039111e-01 -4.616966e-01 6.676919e-01 4.031381e-01
4.375000e+09 6.720284e-01 4.015357e-01 2.995655e-01 -4.602147e-01 2.995714e-01 -4.602238e-01 6.719755e-01 4.012548e-01
4.410000e+09 6.762620e-01 3.996272e-01 2.952738e-01 -4.587109e-01 2.952785e-01 -4.587205e-01 6.762114e-01 3.993419e-01
4.445000e+09 6.804485e-01 3.976905e-01 2.910287e-01 -4.571779e-01 2.910320e-01 -4.571879e-01 6.804000e-01 3.974006e-01
4.480000e+09 6.845886e-01 3.957267e-01 2.868299e-01 -4.556165e-01 2.868319e-01 -4.556268e-01 6.845418e-01 3.954318e-01
4.515000e+09 6.886826e-01 3.937365e-01 2.826771e-01 -4.540278e-01 2.826778e-01 -4.540382e-01 6.886372e-01 3.934364e-01
4.550000e+09 6.927310e-01 3.917210e-01 2.785701e-01 -4.524127e-01 2.785695e-01 -4.524229e-01 6.926866e-01 3.914155e-01
4.585000e+09 6.967344e-01 3.896810e-01 2.745084e-01 -4.507720e-01 2.745065e-01 -4.507819e-01 6.966906e-01 3.893699e-01
4.620000e+09 7.006931e-01 3.876173e-01 2.704918e-01 -4.491066e-01 2.704887e-01 -4.491161e-01 7.006495e-01 3.873006e-01
4.655000e+09 7.046077e-01 3.855306e-01 2.665200e-01 -4.474173e-01 2.665157e-01 -4.474262e-01 7.045638e-01 3.852082e-01
4.690000e+09 7.084787e-01 3.834217e-01 2.625925e-01 -4.457049e-01 2.625872e-01 -4.457131e-01 7.084342e-01 3.830935e-01
4.725000e+09 7.123065e-01 3.812912e-01 2.587090e-01 -4.439702e-01 2.587028e-01 -4.439776e-01 7.122609e-01 3.809574e-01
4.760000e+09 7.160917e-01 3.791398e-01 2.548691e-01 -4.422140e-01 2.548621e-01 -4.422205e-01 7.160446e-01 3.788004e-01
4.795000e+09 7.198347e-01 3.769681e-01 2.510725e-01 -4.404370e-01 2.510648e-01 -4.404424e-01 7.197856e-01 3.766232e-01
4.830000e+09 7.235359e-01 3.747767e-01 2.473187e-01 -4.386398e-01 2.473105e-01 -4.386442e-01 7.234846e-01 3.744266e-01
4.865000e+09 7.271958e-01 3.725660e-01 2.436075e-01 -4.368232e-01 2.435988e-01 -4.368265e-01 7.271419e-01 3.722109e-01
4.900000e+09 7.308148e-01 3.703367e-01 2.399383e-01 -4.349879e-01 2.399294e-01 -4.349899e-01 7.307580e-01 3.699768e-01
4.935000e+09 7.343933e-01 3.680892e-01 2.363108e-01 -4.331343e-01 2.363019e-01 -4.331352e-01 7.343333e-01 3.677248e-01
4.970000e+09 7.379317e-01 3.658239e-01 2.327247e-01 -4.312633e-01 2.327158e-01 -4.312630e-01 7.378682e-01 3.654554e-01
5.005000e+09 7.414303e-01 3.635413e-01 2.291795e-01 -4.293752e-01 2.291708e-01 -4.293738e-01 7.413633e-01 3.631691e-01
5.040000e+09 7.448896e-01 3.612419e-01 2.256749e-01 -4.274708e-01 2.256665e-01 -4.274683e-01 7.448188e-01 3.608662e-01
5.075000e+09 7.483098e-01 3.589260e-01 2.222104e-01 -4.255505e-01 2.222026e-01 -4.255470e-01 7.482351e-01 3.585474e-01
5.110000e+09 7.516912e-01 3.565941e-01 2.187858e-01 -4.236149e-01 2.187785e-01 -4.236104e-01 7.516126e-01 3.562128e-01
5.145000e+09 7.550341e-01 3.542466e-01 2.154006e-01 -4.216645e-01 2.153941e-01 -4.216591e-01 7.549517e-01 3.538631e-01
5.180000e+09 7.583389e-01 3.518838e-01 2.120545e-01 -4.196997e-01 2.120488e-01 -4.196936e-01 7.582526e-01 3.514984e-01
5.215000e+09 7.616057e-01 3.495062e-01 2.087472e-01 -4.177211e-01 2.087423e-01 -4.177143e-01 7.615156e-01 3.491193e-01
5.250000e+09 7.648348e-01 3.471141e-01 2.054782e-01 -4.157292e-01 2.054743e-01 -4.157219e-01 7.647410e-01 3.467261e-01
5.285000e+09 7.680264e-01 3.447079e-01 2.022473e-01 -4.137243e-01 2.022444e-01 -4.137166e-01 7.679292e-01 3.443191e-01
5.320000e+09 7.711807e-01 3.422880e-01 1.990541e-01 -4.117069e-01 1.990523e-01 -4.116989e-01 7.710802e-01 3.418988e-01
5.355000e+09 7.742980e-01 3.398549e-01 1.958983e-01 -4.096775e-01 1.958975e-01 -4.096694e-01 7.741945e-01 3.394655e-01
5.390000e+09 7.773784e-01 3.374089e-01 1.927795e-01 -4.076364e-01 1.927798e-01 -4.076283e-01 7.772721e-01 3.370195e-01
5.425000e+09 7.804221e-01 3.349504e-01 1.896975e-01 -4.055841e-01 1.896989e-01 -4.055762e-01 7.803134e-01 3.345613e-01
5.460000e+09 7.834293e-01 3.324798e-01 1.866519e-01 -4.035210e-01 1.866543e-01 -4.035133e-01 7.833185e-01 3.320911e-01
5.495000e+09 7.864002e-01 3.299976e-01 1.836425e-01 -4.014475e-01 1.836458e-01 -4.014402e-01 7.862876e-01 3.296095e-01
5.530000e+09 7.893349e-01 3.275042e-01 1.806689e-01 -3.993639e-01 1.806731e-01 -3.993572e-01 7.892210e-01 3.271168e-01
5.565000e+09 7.922337e-01 3.250001e-01 1.777308e-01 -3.972707e-01 1.777359e-01 -3.972646e-01 7.921187e-01 3.246133e-01
5.600000e+09 7.950967e-01 3.224856e-01 1.748280e-01 -3.951683e-01 1.748338e-01 -3.951628e-01 7.949810e-01 3.220995e-01
5.635000e+09 7.979241e-01 3.199612e-01 1.719602e-01 -3.930569e-01 1.719666e-01 -3.930523e-01 7.978082e-01 3.195758e-01
5.670000e+09 8.007162e-01 3.174274e-01 1.691270e-01 -3.909371e-01 1.691339e-01 -3.909333e-01 8.006003e-01 3.170425e-01
5.705000e+09 8.034731e-01 3.148847e-01 1.663282e-01 -3.888091e-01 1.663356e-01 -3.888063e-01 8.033576e-01 3.145002e-01
5.740000e+09 8.061951e-01 3.123335e-01 1.635635e-01 -3.866733e-01 1.635712e-01 -3.866715e-01 8.060802e-01 3.119492e-01
5.775000e+09 8.088824e-01 3.097742e-01 1.608327e-01 -3.845301e-01 1.608405e-01 -3.845293e-01 8.087684e-01 3.093900e-01
5.810000e+09 8.115352e-01 3.072074e-01 1.581353e-01 -3.823799e-01 1.581432e-01 -3.823800e-01 8.114225e-01 3.068229e-01
5.845000e+09 8.141537e-01 3.046335e-01 1.554713e-01 -3.802230e-01 1.554790e-01 -3.802241e-01 8.140425e-01 3.042485e-01
5.880000e+09 8.167384e-01 3.020529e-01 1.528402e-01 -3.780597e-01 1.528477e-01 -3.780618e-01 8.166289e-01 3.016671e-01
5.915000e+09 8.192894e-01 2.994661e-01 1.502418e-01 -3.758904e-01 1.502490e-01 -3.758934e-01 8.191817e-01 2.990793e-01
5.950000e+09 8.218071e-01 2.968736e-01 1.476757e-01 -3.737155e-01 1.476825e-01 -3.737193e-01 8.217013e-01 2.964853e-01
5.985000e+09 8.242918e-01 2.942758e-01 1.451418e-01 -3.715352e-01 1.451480e-01 -3.715399e-01 8.241880e-01 2.938857e-01
6.020000e+09 8.267437e-01 2.916732e-01 1.426397e-01 -3.693499e-01 1.426453e-01 -3.693553e-01 8.266420e-01 2.912808e-01
6.055000e+09 8.291634e-01 2.890660e-01 1.401691e-01 -3.671600e-01 1.401740e-01 -3.671660e-01 8.290636e-01 2.886711e-01
6.090000e+09 8.315510e-01 2.864548e-01 1.377297e-01 -3.649657e-01 1.377338e-01 -3.649722e-01 8.314532e-01 2.860571e-01
6.125000e+09 8.339070e-01 2.838400e-01 1.353212e-01 -3.627673e-01 1.353244e-01 -3.627743e-01 8.338110e-01 2.834390e-01
6.160000e+09 8.362317e-01 2.812218e-01 1.329433e-01 -3.605653e-01 1.329456e-01 -3.605725e-01 8.361375e-01 2.808172e-01
6.195000e+09 8.385256e-01 2.786007e-01 1.305957e-01 -3.583597e-01 1.305971e-01 -3.583672e-01 8.384330e-01 2.781923e-01
6.230000e+09 8.407891e-01 2.759770e-01 1.282780e-01 -3.561510e-01 1.282785e-01 -3.561586e-01 8.406977e-01 2.755644e-01
6.265000e+09 8.430224e-01 2.733510e-01 1.259901e-01 -3.539394e-01 1.259896e-01 -3.539470e-01 8.429322e-01 2.729339e-01
6.300000e+09 8.452262e-01 2.707229e-01 1.237314e-01 -3.517253e-01 1.237301e-01 -3.517326e-01 8.451367e-01 2.703012e-01
6.335000e+09 8.474006e-01 2.680932e-01 1.215019e-01 -3.495087e-01 1.214997e-01 -3.495158e-01 8.473116e-01 2.676666e-01
6.370000e+09 8.495463e-01 2.654620e-01 1.193010e-01 -3.472901e-01 1.192980e-01 -3.472968e-01 8.494575e-01 2.650304e-01
6.405000e+09 8.516635e-01 2.628295e-01 1.171285e-01 -3.450696e-01 1.171247e-01 -3.450758e-01 8.515745e-01 2.623928e-01
6.440000e+09 8.537527e-01 2.601960e-01 1.149842e-01 -3.428474e-01 1.149796e-01 -3.428531e-01 8.536631e-01 2.597541e-01
6.475000e+09 8.558142e-01 2.575617e-01 1.128676e-01 -3.406239e-01 1.128624e-01 -3.406290e-01 8.557238e-01 2.571145e-01
6.510000e+09 8.578486e-01 2.549267e-01 1.107784e-01 -3.383992e-01 1.107727e-01 -3.384035e-01 8.577569e-01 2.544742e-01
6.545000e+09 8.598561e-01 2.522912e-01 1.087164e-01 -3.361734e-01 1.087102e-01 -3.361770e-01 8.597628e-01 2.518335e-01
6.580000e+09 8.618371e-01 2.496553e-01 1.066812e-01 -3.339469e-01 1.066746e-01 -3.339496e-01 8.617419e-01 2.491925e-01
6.615000e+09 8.637921e-01 2.470191e-01 1.046725e-01 -3.317197e-01 1.046657e-01 -3.317216e-01 8.636946e-01 2.465513e-01
6.650000e+09 8.657214e-01 2.443827e-01 1.026900e-01 -3.294921e-01 1.026831e-01 -3.294931e-01 8.656212e-01 2.439101e-01
6.685000e+09 8.676252e-01 2.417463e-01 1.007334e-01 -3.272642e-01 1.007265e-01 -3.272643e-01 8.675222e-01 2.412691e-01
6.720000e+09 8.695040e-01 2.391098e-01 9.880243e-02 -3.250361e-01 9.879562e-02 -3.250353e-01 8.693978e-01 2.386283e-01
6.755000e+09 8.713581e-01 2.364734e-01 9.689678e-02 -3.228080e-01 9.689017e-02 -3.228064e-01 8.712484e-01 2.359877e-01
6.790000e+09 8.731877e-01 2.338371e-01 9.501616e-02 -3.205801e-01 9.500987e-02 -3.205776e-01 8.730744e-01 2.333476e-01
6.825000e+09 8.749932e-01 2.312009e-01 9.316029e-02 -3.183524e-01 9.315441e-02 -3.183492e-01 8.748760e-01 2.307080e-01
6.860000e+09 8.767747e-01 2.285649e-01 9.132889e-02 -3.161251e-01 9.132352e-02 -3.161211e-01 8.766536e-01 2.280688e-01
6.895000e+09 8.785326e-01 2.259292e-01 8.952170e-02 -3.138983e-01 8.951692e-02 -3.138937e-01 8.784075e-01 2.254302e-01
6.930000e+09 8.802671e-01 2.232936e-01 8.773846e-02 -3.116721e-01 8.773435e-02 -3.116669e-01 8.801380e-01 2.227922e-01
6.965000e+09 8.819785e-01 2.206583e-01 8.597891e-02 -3.094466e-01 8.597553e-02 -3.094410e-01 8.818452e-01 2.201547e-01
7.000000e+09 8.836668e-01 2.180233e-01 8.424280e-02 -3.072220e-01 8.424021e-02 -3.072159e-01 8.835294e-01 2.175180e-01
7.035000e+09 8.853323e-01 2.153886e-01 8.252989e-02 -3.049982e-01 8.252813e-02 -3.049919e-01 8.851910e-01 2.148819e-01
7.070000e+09 8.869752e-01 2.127543e-01 8.083995e-02 -3.027754e-01 8.083904e-02 -3.027689e-01 8.868300e-01 2.122465e-01
7.105000e+09 8.885956e-01 2.101203e-01 7.917275e-02 -3.005537e-01 7.917271e-02 -3.005471e-01 8.884467e-01 2.096118e-01
7.140000e+09 8.901937e-01 2.074868e-01 7.752807e-02 -2.983332e-01 7.752890e-02 -2.983266e-01 8.900413e-01 2.069778e-01
7.175000e+09 8.917696e-01 2.048538e-01 7.590569e-02 -2.961139e-01 7.590738e-02 -2.961075e-01 8.916139e-01 2.043445e-01
7.210000e+09 8.933235e-01 2.022213e-01 7.430541e-02 -2.938959e-01 7.430793e-02 -2.938898e-01 8.931648e-01 2.017121e-01
7.245000e+09 8.948555e-01 1.995894e-01 7.272702e-02 -2.916793e-01 7.273034e-02 -2.916736e-01 8.946940e-01 1.990804e-01
7.280000e+09 8.963656e-01 1.969582e-01 7.117032e-02 -2.894643e-01 7.117439e-02 -2.894590e-01 8.962017e-01 1.964496e-01
7.315000e+09 8.978541e-01 1.943278e-01 6.963513e-02 -2.872508e-01 6.963987e-02 -2.872460e-01 8.976880e-01 1.938197e-01
7.350000e+09 8.993209e-01 1.916982e-01 6.812125e-02 -2.850390e-01 6.812660e-02 -2.850348e-01 8.991531e-01 1.911908e-01
7.385000e+09 9.007663e-01 1.890696e-01 6.662849e-02 -2.828289e-01 6.663437e-02 -2.828255e-01 9.005970e-01 1.885629e-01
7.420000e+09 9.021902e-01 1.864421e-01 6.515669e-02 -2.806206e-01 6.516300e-02 -2.806180e-01 9.020199e-01 1.859361e-01
7.455000e+09 9.035930e-01 1.838158e-01 6.370566e-02 -2.784143e-01 6.371230e-02 -2.784124e-01 9.034219e-01 1.833104e-01
7.490000e+09 9.049745e-01 1.811908e-01 6.227522e-02 -2.762099e-01 6.228210e-02 -2.762089e-01 9.048030e-01 1.806860e-01
7.525000e+09 9.063350e-01 1.785673e-01 6.086521e-02 -2.740076e-01 6.087221e-02 -2.740075e-01 9.061634e-01 1.780630e-01
7.560000e+09 9.076746e-01 1.759455e-01 5.947544e-02 -2.718075e-01 5.948247e-02 -2.718083e-01 9.075033e-01 1.754414e-01
7.595000e+09 9.089934e-01 1.733255e-01 5.810576e-02 -2.696097e-01 5.811269e-02 -2.696113e-01 9.088226e-01 1.728214e-01
7.630000e+09 9.102915e-01 1.707074e-01 5.675598e-02 -2.674142e-01 5.676272e-02 -2.674166e-01 9.101215e-01 1.702032e-01
7.665000e+09 9.115691e-01 1.680914e-01 5.542595e-02 -2.652211e-01 5.543238e-02 -2.652244e-01 9.114001e-01 1.675867e-01
7.700000e+09 9.128263e-01 1.654777e-01 5.411549e-02 -2.630306e-01 5.412151e-02 -2.630347e-01 9.126585e-01 1.649723e-01
7.735000e+09 9.140633e-01 1.628664e-01 5.282442e-02 -2.608427e-01 5.282995e-02 -2.608475e-01 9.138969e-01 1.623600e-01
7.770000e+09 9.152803e-01 1.602578e-01 5.155259e-02 -2.586575e-01 5.155753e-02 -2.586630e-01 9.151154e-01 1.597500e-01
7.805000e+09 9.164774e-01 1.576519e-01 5.029981e-02 -2.564752e-01 5.030409e-02 -2.564812e-01 9.163141e-01 1.571424e-01
7.840000e+09 9.176548e-01 1.550491e-01 4.906591e-02 -2.542957e-01 4.906946e-02 -2.543022e-01 9.174932e-01 1.545374e-01
7.875000e+09 9.188128e-01 1.524493e-01 4.785072e-02 -2.521192e-01 4.785348e-02 -2.521261e-01 9.186529e-01 1.519352e-01
7.910000e+09 9.199515e-01 1.498528e-01 4.665406e-02 -2.499458e-01 4.665599e-02 -2.499530e-01 9.197932e-01 1.493359e-01
7.945000e+09 9.210713e-01 1.472597e-01 4.547575e-02 -2.477756e-01 4.547681e-02 -2.477829e-01 9.209144e-01 1.467396e-01
7.980000e+09 9.221722e-01 1.446702e-01 4.431561e-02 -2.456085e-01 4.431579e-02 -2.456160e-01 9.220167e-01 1.441465e-01
8.015000e+09 9.232545e-01 1.420843e-01 4.317346e-02 -2.434449e-01 4.317276e-02 -2.434523e-01 9.231002e-01 1.415568e-01
8.050000e+09 9.243185e-01 1.395023e-01 4.204912e-02 -2.412846e-01 4.204754e-02 -2.412919e-01 9.241652e-01 1.389706e-01
8.085000e+09 9.253645e-01 1.369242e-01 4.094240e-02 -2.391278e-01 4.093997e-02 -2.391348e-01 9.252119e-01 1.363881e-01
8.120000e+09 9.263927e-01 1.343502e-01 3.985313e-02 -2.369745e-01 3.984987e-02 -2.369812e-01 9.262404e-01 1.338093e-01
8.155000e+09 9.274033e-01 1.317802e-01 3.878110e-02 -2.348249e-01 3.877707e-02 -2.348312e-01 9.272511e-01 1.312344e-01
8.190000e+09 9.283966e-01 1.292144e-01 3.772614e-02 -2.326790e-01 3.772141e-02 -2.326846e-01 9.282442e-01 1.286635e-01
8.225000e+09 9.293729e-01 1.266529e-01 3.668807e-02 -2.305367e-01 3.668269e-02 -2.305418e-01 9.292198e-01 1.260967e-01
8.260000e+09 9.303324e-01 1.240956e-01 3.566669e-02 -2.283983e-01 3.566076e-02 -2.284026e-01 9.301784e-01 1.235341e-01
8.295000e+09 9.312754e-01 1.215427e-01 3.466182e-02 -2.262637e-01 3.465543e-02 -2.262672e-01 9.311200e-01 1.209757e-01
8.330000e+09 9.322021e-01 1.189940e-01 3.367328e-02 -2.241329e-01 3.366652e-02 -2.241357e-01 9.320449e-01 1.184217e-01
8.365000e+09 9.331128e-01 1.164498e-01 3.270088e-02 -2.220061e-01 3.269387e-02 -2.220080e-01 9.329534e-01 1.158720e-01
8.400000e+09 9.340078e-01 1.139098e-01 3.174445e-02 -2.198832e-01 3.173729e-02 -2.198842e-01 9.338458e-01 1.133268e-01
8.435000e+09 9.348872e-01 1.113741e-01 3.080381e-02 -2.177643e-01 3.079661e-02 -2.177643e-01 9.347223e-01 1.107860e-01
8.470000e+09 9.357514e-01 1.088427e-01 2.987878e-02 -2.156493e-01 2.987166e-02 -2.156485e-01 9.355831e-01 1.082496e-01
8.505000e+09 9.366004e-01 1.063156e-01 2.896919e-02 -2.135384e-01 2.896226e-02 -2.135366e-01 9.364285e-01 1.057177e-01
8.540000e+09 9.374346e-01 1.037926e-01 2.807487e-02 -2.114315e-01 2.806825e-02 -2.114289e-01 9.372587e-01 1.031903e-01
8.575000e+09 9.382540e-01 1.012737e-01 2.719567e-02 -2.093286e-01 2.718946e-02 -2.093252e-01 9.380739e-01 1.006672e-01
8.610000e+09 9.390590e-01 9.875883e-02 2.633142e-02 -2.072298e-01 2.632573e-02 -2.072255e-01 9.388744e-01 9.814852e-02
8.645000e+09 9.398496e-01 9.624795e-02 2.548196e-02 -2.051350e-01 2.547688e-02 -2.051300e-01 9.396603e-01 9.563417e-02
8.680000e+09 9.406261e-01 9.374097e-02 2.464715e-02 -2.030442e-01 2.464277e-02 -2.030386e-01 9.404318e-01 9.312409e-02
8.715000e+09 9.413885e-01 9.123781e-02 2.382684e-02 -2.009575e-01 2.382323e-02 -2.009513e-01 9.411892e-01 9.061822e-02
8.750000e+09 9.421370e-01 8.873837e-02 2.302089e-02 -1.988747e-01 2.301812e-02 -1.988682e-01 9.419326e-01 8.811650e-02
8.785000e+09 9.428716e-01 8.624258e-02 2.222916e-02 -1.967960e-01 2.222729e-02 -1.967891e-01 9.426622e-01 8.561885e-02
8.820000e+09 9.435926e-01 8.375036e-02 2.145154e-02 -1.947214e-01 2.145060e-02 -1.947142e-01 9.433781e-01 8.312520e-02
8.855000e+09 9.442999e-01 8.126164e-02 2.068789e-02 -1.926507e-01 2.068790e-02 -1.926434e-01 9.440804e-01 8.063545e-02
8.890000e+09 9.449937e-01 7.877634e-02 1.993809e-02 -1.905840e-01 1.993908e-02 -1.905767e-01 9.447693e-01 7.814954e-02
8.925000e+09 9.456740e-01 7.629439e-02 1.920203e-02 -1.885212e-01 1.920399e-02 -1.885141e-01 9.454449e-01 7.566738e-02
8.960000e+09 9.463408e-01 7.381575e-02 1.847961e-02 -1.864625e-01 1.848251e-02 -1.864556e-01 9.461073e-01 7.318888e-02
8.995000e+09 9.469942e-01 7.134035e-02 1.777072e-02 -1.844077e-01 1.777453e-02 -1.844012e-01 9.467565e-01 7.071397e-02
9.030000e+09 9.476342e-01 6.886817e-02 1.707526e-02 -1.823568e-01 1.707994e-02 -1.823508e-01 9.473927e-01 6.824258e-02
9.065000e+09 9.482609e-01 6.639917e-02 1.639314e-02 -1.803099e-01 1.639862e-02 -1.803045e-01 9.480158e-01 6.577464e-02
9.100000e+09 9.488742e-01 6.393333e-02 1.572426e-02 -1.782669e-01 1.573047e-02 -1.782622e-01 9.486259e-01 6.331009e-02
9.135000e+09 9.494741e-01 6.147065e-02 1.506853e-02 -1.762279e-01 1.507538e-02 -1.762240e-01 9.492231e-01 6.084888e-02
9.170000e+09 9.500608e-01 5.901112e-02 1.442588e-02 -1.741928e-01 1.443328e-02 -1.741898e-01 9.498074e-01 5.839095e-02
9.205000e+09 9.506341e-01 5.655478e-02 1.379622e-02 -1.721617e-01 1.380405e-02 -1.721596e-01 9.503789e-01 5.593628e-02
9.240000e+09 9.511940e-01 5.410164e-02 1.317947e-02 -1.701346e-01 1.318762e-02 -1.701334e-01 9.509374e-01 5.348485e-02
9.275000e+09 9.517407e-01 5.165175e-02 1.257556e-02 -1.681114e-01 1.258390e-02 -1.681112e-01 9.514830e-01 5.103663e-02
9.310000e+09 9.522740e-01 4.920516e-02 1.198440e-02 -1.660922e-01 1.199281e-02 -1.660931e-01 9.520158e-01 4.859163e-02
9.345000e+09 9.527941e-01 4.676194e-02 1.140591e-02 -1.640770e-01 1.141427e-02 -1.640789e-01 9.525358e-01 4.614986e-02
9.380000e+09 9.533008e-01 4.432217e-02 1.084004e-02 -1.620658e-01 1.084820e-02 -1.620688e-01 9.530428e-01 4.371134e-02
9.415000e+09 9.537943e-01 4.188592e-02 1.028668e-02 -1.600586e-01 1.029453e-02 -1.600626e-01 9.535370e-01 4.127610e-02
9.450000e+09 9.542745e-01 3.945329e-02 9.745778e-03 -1.580556e-01 9.753181e-03 -1.580605e-01 9.540183e-01 3.884419e-02
9.485000e+09 9.547416e-01 3.702439e-02 9.217245e-03 -1.560566e-01 9.224082e-03 -1.560625e-01 9.544868e-01 3.641567e-02
9.520000e+09 9.551955e-01 3.459932e-02 8.701003e-03 -1.540618e-01 8.707161e-03 -1.540685e-01 9.549424e-01 3.399059e-02
9.555000e+09 9.556363e-01 3.217819e-02 8.196971e-03 -1.520711e-01 8.202344e-03 -1.520786e-01 9.553852e-01 3.156905e-02
9.590000e+09 9.560642e-01 2.976113e-02 7.705066e-03 -1.500847e-01 7.709560e-03 -1.500928e-01 9.558151e-01 2.915112e-02
9.625000e+09 9.564791e-01 2.734824e-02 7.225201e-03 -1.481025e-01 7.228733e-03 -1.481112e-01 9.562323e-01 2.673690e-02
9.660000e+09 9.568812e-01 2.493966e-02 6.757288e-03 -1.461245e-01 6.759790e-03 -1.461336e-01 9.566368e-01 2.432649e-02
9.695000e+09 9.572706e-01 2.253549e-02 6.301235e-03 -1.441509e-01 6.302654e-03 -1.441603e-01 9.570286e-01 2.191999e-02
9.730000e+09 9.576474e-01 2.013585e-02 5.856950e-03 -1.421816e-01 5.857247e-03 -1.421912e-01 9.574077e-01 1.951752e-02
9.765000e+09 9.580118e-01 1.774086e-02 5.424335e-03 -1.402167e-01 5.423488e-03 -1.402263e-01 9.577743e-01 1.711920e-02
9.800000e+09 9.583638e-01 1.535062e-02 5.003290e-03 -1.382562e-01 5.001297e-03 -1.382657e-01 9.581285e-01 1.472513e-02
9.835000e+09 9.587037e-01 1.296522e-02 4.593714e-03 -1.363001e-01 4.590587e-03 -1.363094e-01 9.584703e-01 1.233543e-02
9.870000e+09 9.590317e-01 1.058476e-02 4.195501e-03 -1.343485e-01 4.191273e-03 -1.343574e-01 9.587998e-01 9.950224e-03
9.905000e+09 9.593478e-01 8.209318e-03 3.808545e-03 -1.324015e-01 3.803264e-03 -1.324098e-01 9.591172e-01 7.569612e-03
9.940000e+09 9.596524e-01 5.838956e-03 3.432737e-03 -1.304589e-01 3.426469e-03 -1.304666e-01 9.594226e-01 5.193703e-03
9.975000e+09 9.599455e-01 3.473730e-03 3.067965e-03 -1.285210e-01 3.060792e-03 -1.285278e-01 9.597161e-01 2.822599e-03
1.001000e+10 9.602274e-01 1.113684e-03 2.714117e-03 -1.265876e-01 2.706138e-03 -1.265935e-01 9.599980e-01 4.563904e-04
1.004500e+10 9.604982e-01 -1.241155e-03 2.371080e-03 -1.246587e-01 2.362406e-03 -1.246637e-01 9.602683e-01 -1.904838e-03
1.008000e+10 9.607583e-01 -3.590774e-03 2.038740e-03 -1.227345e-01 2.029495e-03 -1.227384e-01 9.605272e-01 -4.261012e-03
1.011500e+10 9.610077e-01 -5.935174e-03 1.716983e-03 -1.208149e-01 1.707303e-03 -1.208176e-01 9.607750e-01 -6.612069e-03
1.015000e+10 9.612468e-01 -8.274373e-03 1.405694e-03 -1.188999e-01 1.395725e-03 -1.189014e-01 9.610118e-01 -8.957960e-03
1.018500e+10 9.614756e-01 -1.060840e-02 1.104762e-03 -1.169895e-01 1.094654e-03 -1.169897e-01 9.612378e-01 -1.129865e-02
1.022000e+10 9.616944e-01 -1.293731e-02 8.140739e-04 -1.150837e-01 8.039850e-04 -1.150826e-01 9.614532e-01 -1.363411e-02
1.025500e+10 9.619033e-01 -1.526115e-02 5.335206e-04 -1.131824e-01 5.236099e-04 -1.131801e-01 9.616582e-01 -1.596433e-02
1.029000e+10 9.621026e-01 -1.758000e-02 2.629947e-04 -1.112858e-01 2.534219e-04 -1.112822e-01 9.618529e-01 -1.828932e-02
1.032500e+10 9.622924e-01 -1.989395e-02 2.391504e-06 -1.093936e-01 -6.685842e-06 -1.093888e-01 9.620377e-01 -2.060910e-02
1.036000e+10 9.624729e-01 -2.220310e-02 -2.483901e-04 -1.075060e-01 -2.568190e-04 -1.075001e-01 9.622126e-01 -2.292370e-02
1.039500e+10 9.626443e-01 -2.450756e-02 -4.894476e-04 -1.056229e-01 -4.970822e-04 -1.056159e-01 9.623779e-01 -2.523317e-02
1.043000e+10 9.628065e-01 -2.680744e-02 -7.208743e-04 -1.037443e-01 -7.275780e-04 -1.037363e-01 9.625338e-01 -2.753758e-02
1.046500e+10 9.629599e-01 -2.910287e-02 -9.427591e-04 -1.018701e-01 -9.484070e-04 -1.018612e-01 9.626804e-01 -2.983700e-02
1.050000e+10 9.631044e-01 -3.139398e-02 -1.155186e-03 -1.000002e-01 -1.159667e-03 -9.999060e-02 9.628179e-01 -3.213152e-02
1.053500e+10 9.632401e-01 -3.368091e-02 -1.358234e-03 -9.813475e-02 -1.361452e-03 -9.812453e-02 9.629464e-01 -3.442123e-02
1.057000e+10 9.633672e-01 -3.596380e-02 -1.551976e-03 -9.627358e-02 -1.553854e-03 -9.626292e-02 9.630661e-01 -3.670626e-02
1.060500e+10 9.634857e-01 -3.824278e-02 -1.736480e-03 -9.441669e-02 -1.736961e-03 -9.440575e-02 9.631771e-01 -3.898671e-02
1.064000e+10 9.635955e-01 -4.051800e-02 -1.911810e-03 -9.256403e-02 -1.910854e-03 -9.255299e-02 9.632796e-01 -4.126273e-02
1.067500e+10 9.636968e-01 -4.278957e-02 -2.078022e-03 -9.071555e-02 -2.075612e-03 -9.070460e-02 9.633735e-01 -4.353442e-02
1.071000e+10 9.637895e-01 -4.505764e-02 -2.235169e-03 -8.887123e-02 -2.231310e-03 -8.886053e-02 9.634591e-01 -4.580195e-02
1.074500e+10 9.638736e-01 -4.732232e-02 -2.383295e-03 -8.703101e-02 -2.378016e-03 -8.702076e-02 9.635363e-01 -4.806543e-02
1.078000e+10 9.639491e-01 -4.958372e-02 -2.522442e-03 -8.519487e-02 -2.515794e-03 -8.518524e-02 9.636052e-01 -5.032502e-02
1.081500e+10 9.640159e-01 -5.184195e-02 -2.652647e-03 -8.336277e-02 -2.644703e-03 -8.335394e-02 9.636659e-01 -5.258085e-02
1.085000e+10 9.640740e-01 -5.409708e-02 -2.773942e-03 -8.153468e-02 -2.764795e-03 -8.152681e-02 9.637183e-01 -5.483305e-02
1.088500e+10 9.641232e-01 -5.634919e-02 -2.886352e-03 -7.971057e-02 -2.876121e-03 -7.970381e-02 9.637625e-01 -5.708176e-02
1.092000e+10 9.641636e-01 -5.859834e-02 -2.989904e-03 -7.789041e-02 -2.978721e-03 -7.788491e-02 9.637984e-01 -5.932709e-02
1.095500e+10 9.641950e-01 -6.084457e-02 -3.084616e-03 -7.607420e-02 -3.072637e-03 -7.607008e-02 9.638260e-01 -6.156917e-02
1.099000e+10 9.642174e-01 -6.308791e-02 -3.170507e-03 -7.426191e-02 -3.157900e-03 -7.425927e-02 9.638453e-01 -6.380808e-02
1.102500e+10 9.642306e-01 -6.532835e-02 -3.247593e-03 -7.245353e-02 -3.234542e-03 -7.245246e-02 9.638561e-01 -6.604393e-02
1.106000e+10 9.642345e-01 -6.756590e-02 -3.315888e-03 -7.064906e-02 -3.302587e-03 -7.064963e-02 9.638584e-01 -6.827679e-02
1.109500e+10 9.642291e-01 -6.980051e-02 -3.375404e-03 -6.884850e-02 -3.362058e-03 -6.885074e-02 9.638522e-01 -7.050673e-02
1.113000e+10 9.642143e-01 -7.203213e-02 -3.426157e-03 -6.705186e-02 -3.412973e-03 -6.705578e-02 9.638373e-01 -7.273378e-02
1.116500e+10 9.641899e-01 -7.426071e-02 -3.468158e-03 -6.525914e-02 -3.455350e-03 -6.526474e-02 9.638137e-01 -7.495798e-02
1.120000e+10 9.641559e-01 -7.648615e-02 -3.501423e-03 -6.347036e-02 -3.489203e-03 -6.347759e-02 9.637812e-01 -7.717933e-02
1.123500e+10 9.641122e-01 -7.870835e-02 -3.525969e-03 -6.168554e-02 -3.514543e-03 -6.169435e-02 9.637398e-01 -7.939784e-02
1.127000e+10 9.640587e-01 -8.092720e-02 -3.541814e-03 -5.990472e-02 -3.531384e-03 -5.991500e-02 9.636892e-01 -8.161347e-02
1.130500e+10 9.639955e-01 -8.314257e-02 -3.548979e-03 -5.812791e-02 -3.539736e-03 -5.813955e-02 9.636295e-01 -8.382618e-02
1.134000e+10 9.639224e-01 -8.535431e-02 -3.547491e-03 -5.635515e-02 -3.539612e-03 -5.636801e-02 9.635606e-01 -8.603592e-02
1.137500e+10 9.638395e-01 -8.756227e-02 -3.537378e-03 -5.458647e-02 -3.531025e-03 -5.460039e-02 9.634823e-01 -8.824259e-02
1.141000e+10 9.637467e-01 -8.976629e-02 -3.518673e-03 -5.282192e-02 -3.513987e-03 -5.283672e-02 9.633945e-01 -9.044610e-02
1.144500e+10 9.636441e-01 -9.196620e-02 -3.491416e-03 -5.106154e-02 -3.488516e-03 -5.107700e-02 9.632973e-01 -9.264634e-02
1.148000e+10 9.635318e-01 -9.416182e-02 -3.455649e-03 -4.930537e-02 -3.454630e-03 -4.932128e-02 9.631904e-01 -9.484319e-02
1.151500e+10 9.634097e-01 -9.635300e-02 -3.411421e-03 -4.755345e-02 -3.412352e-03 -4.756958e-02 9.630740e-01 -9.703649e-02
1.155000e+10 9.632780e-01 -9.853954e-02 -3.358787e-03 -4.580584e-02 -3.361706e-03 -4.582193e-02 9.629479e-01 -9.922610e-02
1.158500e+10 9.631367e-01 -1.007213e-01 -3.297804e-03 -4.406256e-02 -3.302722e-03 -4.407838e-02 9.628122e-01 -1.014119e-01
1.162000e+10 9.629861e-01 -1.028981e-01 -3.228540e-03 -4.232366e-02 -3.235435e-03 -4.233896e-02 9.626668e-01 -1.035936e-01
1.165500e+10 9.628262e-01 -1.050698e-01 -3.151062e-03 -4.058919e-02 -3.159882e-03 -4.060370e-02 9.625118e-01 -1.057711e-01
1.169000e+10 9.626572e-01 -1.072362e-01 -3.065447e-03 -3.885918e-02 -3.076108e-03 -3.887266e-02 9.623472e-01 -1.079443e-01
1.172500e+10 9.624793e-01 -1.093972e-01 -2.971775e-03 -3.713366e-02 -2.984160e-03 -3.714588e-02 9.621732e-01 -1.101129e-01
1.176000e+10 9.622926e-01 -1.115528e-01 -2.870129e-03 -3.541266e-02 -2.884094e-03 -3.542339e-02 9.619897e-01 -1.122768e-01
1.179500e+10 9.620975e-01 -1.137027e-01 -2.760598e-03 -3.369620e-02 -2.775967e-03 -3.370524e-02 9.617969e-01 -1.144357e-01
1.183000e+10 9.618940e-01 -1.158470e-01 -2.643273e-03 -3.198432e-02 -2.659845e-03 -3.199146e-02 9.615950e-01 -1.165897e-01
1.186500e+10 9.616825e-01 -1.179856e-01 -2.518247e-03 -3.027701e-02 -2.535795e-03 -3.028210e-02 9.613840e-01 -1.187384e-01
1.190000e+10 9.614632e-01 -1.201184e-01 -2.385618e-03 -2.857428e-02 -2.403892e-03 -2.857719e-02 9.611642e-01 -1.208817e-01
1.193500e+10 9.612363e-01 -1.222455e-01 -2.245481e-03 -2.687614e-02 -2.264214e-03 -2.687675e-02 9.609358e-01 -1.230195e-01
1.197000e+10 9.610021e-01 -1.243668e-01 -2.097934e-03 -2.518258e-02 -2.116843e-03 -2.518082e-02 9.606989e-01 -1.251518e-01
1.200500e+10 9.607608e-01 -1.264824e-01 -1.943075e-03 -2.349359e-02 -1.961863e-03 -2.348941e-02 9.604537e-01 -1.272783e-01
1.204000e+10 9.605127e-01 -1.285925e-01 -1.780998e-03 -2.180914e-02 -1.799364e-03 -2.180254e-02 9.602006e-01 -1.293992e-01
1.207500e+10 9.602580e-01 -1.306970e-01 -1.611798e-03 -2.012921e-02 -1.629437e-03 -2.012022e-02 9.599397e-01 -1.315142e-01
1.211000e+10 9.599969e-01 -1.327960e-01 -1.435566e-03 -1.845376e-02 -1.452172e-03 -1.844246e-02 9.596713e-01 -1.336233e-01
1.214500e+10 9.597297e-01 -1.348899e-01 -1.252387e-03 -1.678275e-02 -1.267664e-03 -1.676925e-02 9.593956e-01 -1.357267e-01
1.218000e+10 9.594565e-01 -1.369786e-01 -1.062345e-03 -1.511613e-02 -1.076005e-03 -1.510057e-02 9.591129e-01 -1.378242e-01
1.221500e+10 9.591775e-01 -1.390624e-01 -8.655150e-04 -1.345386e-02 -8.772880e-04 -1.343643e-02 9.588234e-01 -1.399160e-01
1.225000e+10 9.588929e-01 -1.411415e-01 -6.619682e-04 -1.179587e-02 -6.716038e-04 -1.177678e-02 9.585274e-01 -1.420021e-01
1.228500e+10 9.586027e-01 -1.432160e-01 -4.517682e-04 -1.014210e-02 -4.590410e-04 -1.012161e-02 9.582251e-01 -1.440826e-01
1.232000e+10 9.583072e-01 -1.452864e-01 -2.349709e-04 -8.492490e-03 -2.396849e-04 -8.470875e-03 9.579168e-01 -1.461577e-01
1.235500e+10 9.580064e-01 -1.473527e-01 -1.162466e-05 -6.846961e-03 -1.361718e-05 -6.824534e-03 9.576026e-01 -1.482275e-01
1.239000e+10 9.577002e-01 -1.494153e-01 2.182307e-04 -5.205446e-03 2.190856e-04 -5.182540e-03 9.572828e-01 -1.502922e-01
1.242500e+10 9.573889e-01 -1.514743e-01 4.545640e-04 -3.567874e-03 4.583520e-04 -3.544838e-03 9.569576e-01 -1.523520e-01
1.246000e+10 9.570722e-01 -1.535301e-01 6.973529e-04 -1.934171e-03 7.041171e-04 -1.911371e-03 9.566270e-01 -1.544071e-01
1.249500e+10 9.567503e-01 -1.555829e-01 9.465839e-04 -3.042665e-04 9.563224e-04 -2.820752e-04 9.562912e-01 -1.564577e-01
1.253000e+10 9.564230e-01 -1.576329e-01 1.202252e-03 1.321909e-03 1.214917e-03 1.343115e-03 9.559504e-01 -1.585040e-01
1.256500e+10 9.560902e-01 -1.596804e-01 1.464362e-03 2.944421e-03 1.479858e-03 2.964267e-03 9.556045e-01 -1.605464e-01
1.260000e+10 9.557518e-01 -1.617256e-01 1.732926e-03 4.563333e-03 1.751109e-03 4.581453e-03 9.552537e-01 -1.625852e-01
1.263500e+10 9.554076e-01 -1.637687e-01 2.007964e-03 6.178701e-03 2.028645e-03 6.194744e-03 9.548980e-01 -1.646204e-01
1.267000e+10 9.550575e-01 -1.658099e-01 2.289503e-03 7.790576e-03 2.312447e-03 7.804209e-03 9.545373e-01 -1.666525e-01
1.270500e+10 9.547011e-01 -1.678493e-01 2.577579e-03 9.399003e-03 2.602506e-03 9.409920e-03 9.541716e-01 -1.686817e-01
1.274000e+10 9.543384e-01 -1.698871e-01 2.872231e-03 1.100402e-02 2.898821e-03 1.101194e-02 9.538008e-01 -1.707083e-01
1.277500e+10 9.539690e-01 -1.719233e-01 3.173504e-03 1.260565e-02 3.201401e-03 1.261035e-02 9.534248e-01 -1.727325e-01
1.281000e+10 9.535927e-01 -1.739581e-01 3.481447e-03 1.420391e-02 3.510259e-03 1.420519e-02 9.530435e-01 -1.747545e-01
1.284500e+10 9.532092e-01 -1.759915e-01 3.796113e-03 1.579881e-02 3.825421e-03 1.579652e-02 9.526566e-01 -1.767745e-01
1.288000e+10 9.528182e-01 -1.780234e-01 4.117554e-03 1.739036e-02 4.146917e-03 1.738440e-02 9.522640e-01 -1.787929e-01
1.291500e+10 9.524194e-01 -1.800538e-01 4.445824e-03 1.897854e-02 4.474783e-03 1.896887e-02 9.518655e-01 -1.808096e-01
1.295000e+10 9.520126e-01 -1.820827e-01 4.780978e-03 2.056332e-02 4.809063e-03 2.054995e-02 9.514608e-01 -1.828249e-01
1.298500e+10 9.515975e-01 -1.841098e-01 5.123065e-03 2.214469e-02 5.149804e-03 2.212769e-02 9.510496e-01 -1.848389e-01
1.302000e+10 9.511738e-01 -1.861352e-01 5.472134e-03 2.372258e-02 5.497057e-03 2.370209e-02 9.506317e-01 -1.868516e-01
1.305500e+10 9.507413e-01 -1.881585e-01 5.828228e-03 2.529696e-02 5.850876e-03 2.527316e-02 9.502067e-01 -1.888631e-01
1.309000e+10 9.502998e-01 -1.901796e-01 6.191384e-03 2.686776e-02 6.211318e-03 2.684090e-02 9.497744e-01 -1.908734e-01
1.312500e+10 9.498490e-01 -1.921981e-01 6.561631e-03 2.843491e-02 6.578438e-03 2.840531e-02 9.493344e-01 -1.928824e-01
1.316000e+10 9.493888e-01 -1.942139e-01 6.938992e-03 2.999833e-02 6.952292e-03 2.996635e-02 9.488865e-01 -1.948902e-01
1.319500e+10 9.489190e-01 -1.962266e-01 7.323479e-03 3.155794e-02 7.332933e-03 3.152399e-02 9.484303e-01 -1.968965e-01
1.323000e+10 9.484396e-01 -1.982358e-01 7.715095e-03 3.311365e-02 7.720412e-03 3.307820e-02 9.479656e-01 -1.989011e-01
1.326500e+10 9.479505e-01 -2.002412e-01 8.113829e-03 3.466536e-02 8.114774e-03 3.462892e-02 9.474921e-01 -2.009041e-01
1.330000e+10 9.474517e-01 -2.022424e-01 8.519663e-03 3.621299e-02 8.516059e-03 3.617608e-02 9.470095e-01 -2.029050e-01
1.333500e+10 9.469432e-01 -2.042391e-01 8.932564e-03 3.775642e-02 8.924300e-03 3.771962e-02 9.465176e-01 -2.049036e-01
1.337000e+10 9.464250e-01 -2.062309e-01 9.352486e-03 3.929556e-02 9.339522e-03 3.925946e-02 9.460162e-01 -2.068996e-01
1.340500e+10 9.458974e-01 -2.082173e-01 9.779372e-03 4.083031e-02 9.761739e-03 4.079552e-02 9.455052e-01 -2.088927e-01
1.344000e+10 9.453604e-01 -2.101981e-01 1.021315e-02 4.236058e-02 1.019096e-02 4.232770e-02 9.449845e-01 -2.108826e-01
1.347500e+10 9.448143e-01 -2.121729e-01 1.065374e-02 4.388628e-02 1.062717e-02 4.385591e-02 9.444538e-01 -2.128688e-01
1.351000e+10 9.442593e-01 -2.141413e-01 1.110105e-02 4.540733e-02 1.107037e-02 4.538006e-02 9.439133e-01 -2.148510e-01
1.354500e+10 9.436959e-01 -2.161030e-01 1.155497e-02 4.692365e-02 1.152051e-02 4.690003e-02 9.433629e-01 -2.168287e-01
1.358000e+10 9.431242e-01 -2.180578e-01 1.201538e-02 4.843517e-02 1.197757e-02 4.841573e-02 9.428026e-01 -2.188016e-01
1.361500e+10 9.425447e-01 -2.200054e-01 1.248216e-02 4.994184e-02 1.244148e-02 4.992707e-02 9.422326e-01 -2.207693e-01
1.365000e+10 9.419578e-01 -2.219456e-01 1.295518e-02 5.144363e-02 1.291217e-02 5.143394e-02 9.416531e-01 -2.227313e-01
1.368500e+10 9.413640e-01 -2.238782e-01 1.343430e-02 5.294049e-02 1.338958e-02 5.293625e-02 9.410641e-01 -2.246872e-01
1.372000e+10 9.407638e-01 -2.258032e-01 1.391937e-02 5.443241e-02 1.387360e-02 5.443391e-02 9.404661e-01 -2.266368e-01
1.375500e+10 9.401576e-01 -2.277205e-01 1.441024e-02 5.591940e-02 1.436413e-02 5.592686e-02 9.398593e-01 -2.285795e-01
1.379000e+10 9.395459e-01 -2.296301e-01 1.490676e-02 5.740147e-02 1.486107e-02 5.741501e-02 9.392441e-01 -2.305151e-01
1.382500e+10 9.389293e-01 -2.315321e-01 1.540879e-02 5.887866e-02 1.536428e-02 5.889831e-02 9.386208e-01 -2.324434e-01
1.386000e+10 9.383083e-01 -2.334266e-01 1.591617e-02 6.035101e-02 1.587364e-02 6.037671e-02 9.379899e-01 -2.343640e-01
1.389500e+10 9.376834e-01 -2.353138e-01 1.642876e-02 6.181858e-02 1.638900e-02 6.185018e-02 9.373519e-01 -2.362768e-01
1.393000e+10 9.370550e-01 -2.371939e-01 1.694643e-02 6.328147e-02 1.691022e-02 6.331869e-02 9.367072e-01 -2.381817e-01
1.396500e+10 9.364237e-01 -2.390674e-01 1.746905e-02 6.473976e-02 1.743715e-02 6.478225e-02 9.360565e-01 -2.400784e-01
1.400000e+10 9.357899e-01 -2.409344e-01 1.799649e-02 6.619357e-02 1.796964e-02 6.624087e-02 9.354002e-01 -2.419671e-01
