#   Hz   S  RI   R   50
!
0.000000e+00 4.338423e-02 0.000000e+00 9.544362e-01 0.000000e+00 9.544366e-01 0.000000e+00 4.339558e-02 0.000000e+00
3.500000e+07 4.347068e-02 8.879418e-03 9.543117e-01 -1.039782e-02 9.543121e-01 -1.039779e-02 4.348209e-02 8.876951e-03
7.000000e+07 4.373000e-02 1.775511e-02 9.539388e-01 -2.078496e-02 9.539392e-01 -2.078491e-02 4.374160e-02 1.775016e-02
1.050000e+08 4.416210e-02 2.662337e-02 9.533185e-01 -3.115083e-02 9.533189e-01 -3.115076e-02 4.417400e-02 2.661589e-02
1.400000e+08 4.476681e-02 3.548045e-02 9.524530e-01 -4.148504e-02 9.524534e-01 -4.148494e-02 4.477913e-02 3.547039e-02
1.750000e+08 4.554391e-02 4.432264e-02 9.513449e-01 -5.177741e-02 9.513453e-01 -5.177729e-02 4.555675e-02 4.430993e-02
2.100000e+08 4.649312e-02 5.314621e-02 9.499977e-01 -6.201814e-02 9.499981e-01 -6.201800e-02 4.650656e-02 5.313075e-02
2.450000e+08 4.761408e-02 6.194741e-02 9.484156e-01 -7.219782e-02 9.484160e-01 -7.219766e-02 4.762821e-02 6.192911e-02
2.800000e+08 4.890637e-02 7.072251e-02 9.466033e-01 -8.230751e-02 9.466037e-01 -8.230733e-02 4.892125e-02 7.070124e-02
3.150000e+08 5.036951e-02 7.946776e-02 9.445661e-01 -9.233880e-02 9.445665e-01 -9.233860e-02 5.038519e-02 7.944340e-02
3.500000e+08 5.200296e-02 8.817939e-02 9.423097e-01 -1.022838e-01 9.423101e-01 -1.022836e-01 5.201947e-02 8.815180e-02
3.850000e+08 5.380611e-02 9.685362e-02 9.398404e-01 -1.121354e-01 9.398408e-01 -1.121352e-01 5.382344e-02 9.682266e-02
4.200000e+08 5.577825e-02 1.054867e-01 9.371647e-01 -1.218869e-01 9.371651e-01 -1.218867e-01 5.579641e-02 1.054522e-01
4.550000e+08 5.791865e-02 1.140747e-01 9.342892e-01 -1.315323e-01 9.342897e-01 -1.315321e-01 5.793760e-02 1.140366e-01
4.900000e+08 6.022646e-02 1.226139e-01 9.312210e-01 -1.410664e-01 9.312214e-01 -1.410661e-01 6.024614e-02 1.225720e-01
5.250000e+08 6.270076e-02 1.311004e-01 9.279669e-01 -1.504844e-01 9.279674e-01 -1.504841e-01 6.272111e-02 1.310545e-01
5.600000e+08 6.534055e-02 1.395303e-01 9.245342e-01 -1.597822e-01 9.245347e-01 -1.597819e-01 6.536148e-02 1.394804e-01
5.950000e+08 6.814474e-02 1.478997e-01 9.209297e-01 -1.689565e-01 9.209302e-01 -1.689562e-01 6.816613e-02 1.478456e-01
6.300000e+08 7.111211e-02 1.562047e-01 9.171605e-01 -1.780042e-01 9.171610e-01 -1.780039e-01 7.113386e-02 1.561463e-01
6.650000e+08 7.424138e-02 1.644412e-01 9.132332e-01 -1.869230e-01 9.132337e-01 -1.869227e-01 7.426332e-02 1.643784e-01
7.000000e+08 7.753110e-02 1.726054e-01 9.091545e-01 -1.957110e-01 9.091550e-01 -1.957107e-01 7.755309e-02 1.725381e-01
7.350000e+08 8.097972e-02 1.806931e-01 9.049307e-01 -2.043668e-01 9.049312e-01 -2.043665e-01 8.100159e-02 1.806212e-01
7.700000e+08 8.458557e-02 1.887003e-01 9.005679e-01 -2.128892e-01 9.005684e-01 -2.128889e-01 8.460714e-02 1.886238e-01
8.050000e+08 8.834679e-02 1.966230e-01 8.960719e-01 -2.212776e-01 8.960724e-01 -2.212773e-01 8.836787e-02 1.965419e-01
8.400000e+08 9.226139e-02 2.044570e-01 8.914481e-01 -2.295314e-01 8.914486e-01 -2.295311e-01 9.228181e-02 2.043713e-01
8.750000e+08 9.632723e-02 2.121984e-01 8.867019e-01 -2.376504e-01 8.867024e-01 -2.376502e-01 9.634677e-02 2.121080e-01
9.100000e+08 1.005420e-01 2.198430e-01 8.818380e-01 -2.456347e-01 8.818385e-01 -2.456344e-01 1.005604e-01 2.197480e-01
9.450000e+08 1.049031e-01 2.273869e-01 8.768610e-01 -2.534843e-01 8.768615e-01 -2.534840e-01 1.049203e-01 2.272872e-01
9.800000e+08 1.094079e-01 2.348259e-01 8.717753e-01 -2.611994e-01 8.717758e-01 -2.611991e-01 1.094236e-01 2.347218e-01
1.015000e+09 1.140534e-01 2.421563e-01 8.665848e-01 -2.687803e-01 8.665853e-01 -2.687800e-01 1.140675e-01 2.420477e-01
1.050000e+09 1.188367e-01 2.493740e-01 8.612933e-01 -2.762272e-01 8.612938e-01 -2.762270e-01 1.188490e-01 2.492610e-01
1.085000e+09 1.237543e-01 2.564752e-01 8.559042e-01 -2.835405e-01 8.559047e-01 -2.835403e-01 1.237646e-01 2.563580e-01
1.120000e+09 1.288027e-01 2.634563e-01 8.504209e-01 -2.907204e-01 8.504214e-01 -2.907203e-01 1.288109e-01 2.633351e-01
1.155000e+09 1.339784e-01 2.703137e-01 8.448466e-01 -2.977671e-01 8.448470e-01 -2.977669e-01 1.339842e-01 2.701885e-01
1.190000e+09 1.392772e-01 2.770439e-01 8.391841e-01 -3.046807e-01 8.391845e-01 -3.046805e-01 1.392806e-01 2.769149e-01
1.225000e+09 1.446952e-01 2.836437e-01 8.334362e-01 -3.114611e-01 8.334367e-01 -3.114610e-01 1.446960e-01 2.835111e-01
1.260000e+09 1.502281e-01 2.901099e-01 8.276059e-01 -3.181085e-01 8.276063e-01 -3.181084e-01 1.502262e-01 2.899738e-01
1.295000e+09 1.558713e-01 2.964396e-01 8.216956e-01 -3.246226e-01 8.216960e-01 -3.246225e-01 1.558667e-01 2.963002e-01
1.330000e+09 1.616203e-01 3.026301e-01 8.157081e-01 -3.310032e-01 8.157085e-01 -3.310031e-01 1.616128e-01 3.024876e-01
1.365000e+09 1.674703e-01 3.086789e-01 8.096460e-01 -3.372499e-01 8.096464e-01 -3.372499e-01 1.674600e-01 3.085335e-01
1.400000e+09 1.734164e-01 3.145838e-01 8.035118e-01 -3.433625e-01 8.035122e-01 -3.433625e-01 1.734031e-01 3.144357e-01
1.435000e+09 1.794536e-01 3.203428e-01 7.973083e-01 -3.493404e-01 7.973087e-01 -3.493404e-01 1.794373e-01 3.201922e-01
1.470000e+09 1.855768e-01 3.259543e-01 7.910382e-01 -3.551832e-01 7.910385e-01 -3.551832e-01 1.855576e-01 3.258014e-01
1.505000e+09 1.917808e-01 3.314167e-01 7.847041e-01 -3.608903e-01 7.847045e-01 -3.608904e-01 1.917586e-01 3.312617e-01
1.540000e+09 1.980604e-01 3.367290e-01 7.783090e-01 -3.664613e-01 7.783094e-01 -3.664613e-01 1.980353e-01 3.365720e-01
1.575000e+09 2.044104e-01 3.418902e-01 7.718557e-01 -3.718955e-01 7.718561e-01 -3.718955e-01 2.043824e-01 3.417315e-01
1.610000e+09 2.108256e-01 3.468999e-01 7.653473e-01 -3.771925e-01 7.653476e-01 -3.771926e-01 2.107947e-01 3.467395e-01
1.645000e+09 2.173007e-01 3.517577e-01 7.587867e-01 -3.823518e-01 7.587870e-01 -3.823519e-01 2.172670e-01 3.515959e-01
1.680000e+09 2.238306e-01 3.564636e-01 7.521772e-01 -3.873731e-01 7.521775e-01 -3.873732e-01 2.237942e-01 3.563005e-01
1.715000e+09 2.304103e-01 3.610180e-01 7.455218e-01 -3.922560e-01 7.455221e-01 -3.922562e-01 2.303713e-01 3.608537e-01
1.750000e+09 2.370348e-01 3.654213e-01 7.388241e-01 -3.970004e-01 7.388243e-01 -3.970005e-01 2.369932e-01 3.652560e-01
1.785000e+09 2.436993e-01 3.696744e-01 7.320872e-01 -4.016060e-01 7.320874e-01 -4.016062e-01 2.436552e-01 3.695081e-01
1.820000e+09 2.503990e-01 3.737782e-01 7.253145e-01 -4.060730e-01 7.253148e-01 -4.060732e-01 2.503526e-01 3.736111e-01
1.855000e+09 2.571294e-01 3.777340e-01 7.185095e-01 -4.104015e-01 7.185098e-01 -4.104017e-01 2.570807e-01 3.775662e-01
1.890000e+09 2.638861e-01 3.815434e-01 7.116757e-01 -4.145917e-01 7.116759e-01 -4.145920e-01 2.638353e-01 3.813749e-01
1.925000e+09 2.706650e-01 3.852078e-01 7.048163e-01 -4.186441e-01 7.048166e-01 -4.186445e-01 2.706122e-01 3.850387e-01
1.960000e+09 2.774621e-01 3.887292e-01 6.979350e-01 -4.225594e-01 6.979352e-01 -4.225597e-01 2.774074e-01 3.885595e-01
1.995000e+09 2.842736e-01 3.921094e-01 6.910351e-01 -4.263381e-01 6.910353e-01 -4.263385e-01 2.842172e-01 3.919392e-01
2.030000e+09 2.910960e-01 3.953505e-01 6.841199e-01 -4.299812e-01 6.841201e-01 -4.299817e-01 2.910378e-01 3.951799e-01
2.065000e+09 2.979259e-01 3.984547e-01 6.771927e-01 -4.334898e-01 6.771929e-01 -4.334903e-01 2.978662e-01 3.982836e-01
2.100000e+09 3.047602e-01 4.014242e-01 6.702568e-01 -4.368649e-01 6.702570e-01 -4.368654e-01 3.046989e-01 4.012526e-01
2.135000e+09 3.115959e-01 4.042613e-01 6.633154e-01 -4.401079e-01 6.633156e-01 -4.401085e-01 3.115333e-01 4.040893e-01
2.170000e+09 3.184304e-01 4.069683e-01 6.563714e-01 -4.432202e-01 6.563716e-01 -4.432208e-01 3.183665e-01 4.067957e-01
2.205000e+09 3.252612e-01 4.095474e-01 6.494278e-01 -4.462033e-01 6.494280e-01 -4.462039e-01 3.251961e-01 4.093744e-01
2.240000e+09 3.320860e-01 4.120011e-01 6.424875e-01 -4.490588e-01 6.424877e-01 -4.490595e-01 3.320198e-01 4.118276e-01
2.275000e+09 3.389027e-01 4.143316e-01 6.355531e-01 -4.517885e-01 6.355533e-01 -4.517893e-01 3.388354e-01 4.141575e-01
2.310000e+09 3.457092e-01 4.165412e-01 6.286273e-01 -4.543941e-01 6.286274e-01 -4.543950e-01 3.456409e-01 4.163665e-01
2.345000e+09 3.525039e-01 4.186321e-01 6.217125e-01 -4.568776e-01 6.217126e-01 -4.568785e-01 3.524346e-01 4.184568e-01
2.380000e+09 3.592851e-01 4.206064e-01 6.148109e-01 -4.592408e-01 6.148110e-01 -4.592417e-01 3.592149e-01 4.204304e-01
2.415000e+09 3.660512e-01 4.224662e-01 6.079249e-01 -4.614856e-01 6.079250e-01 -4.614867e-01 3.659802e-01 4.222896e-01
2.450000e+09 3.728010e-01 4.242135e-01 6.010564e-01 -4.636141e-01 6.010565e-01 -4.636153e-01 3.727292e-01 4.240361e-01
2.485000e+09 3.795331e-01 4.258502e-01 5.942074e-01 -4.656283e-01 5.942075e-01 -4.656295e-01 3.794604e-01 4.256721e-01
2.520000e+09 3.862462e-01 4.273782e-01 5.873797e-01 -4.675302e-01 5.873798e-01 -4.675314e-01 3.861728e-01 4.271993e-01
2.555000e+09 3.929394e-01 4.287992e-01 5.805750e-01 -4.693217e-01 5.805751e-01 -4.693230e-01 3.928652e-01 4.286194e-01
2.590000e+09 3.996115e-01 4.301149e-01 5.737949e-01 -4.710049e-01 5.737949e-01 -4.710063e-01 3.995366e-01 4.299341e-01
2.625000e+09 4.062614e-01 4.313268e-01 5.670407e-01 -4.725816e-01 5.670407e-01 -4.725831e-01 4.061858e-01 4.311451e-01
2.660000e+09 4.128882e-01 4.324364e-01 5.603140e-01 -4.740540e-01 5.603139e-01 -4.740556e-01 4.128119e-01 4.322538e-01
2.695000e+09 4.194910e-01 4.334453e-01 5.536158e-01 -4.754238e-01 5.536158e-01 -4.754254e-01 4.194138e-01 4.332616e-01
2.730000e+09 4.260686e-01 4.343547e-01 5.469476e-01 -4.766929e-01 5.469475e-01 -4.766946e-01 4.259907e-01 4.341700e-01
2.765000e+09 4.326203e-01 4.351659e-01 5.403102e-01 -4.778631e-01 5.403101e-01 -4.778650e-01 4.325416e-01 4.349802e-01
2.800000e+09 4.391449e-01 4.358802e-01 5.337049e-01 -4.789363e-01 5.337048e-01 -4.789383e-01 4.390655e-01 4.356934e-01
2.835000e+09 4.456415e-01 4.364989e-01 5.271325e-01 -4.799142e-01 5.271324e-01 -4.799162e-01 4.455613e-01 4.363110e-01
2.870000e+09 4.521092e-01 4.370230e-01 5.205941e-01 -4.807984e-01 5.205939e-01 -4.808006e-01 4.520282e-01 4.368340e-01
2.905000e+09 4.585468e-01 4.374538e-01 5.140904e-01 -4.815906e-01 5.140902e-01 -4.815929e-01 4.584650e-01 4.372637e-01
2.940000e+09 4.649534e-01 4.377924e-01 5.076224e-01 -4.822925e-01 5.076221e-01 -4.822949e-01 4.648707e-01 4.376012e-01
2.975000e+09 4.713278e-01 4.380400e-01 5.011908e-01 -4.829056e-01 5.011904e-01 -4.829081e-01 4.712443e-01 4.378476e-01
3.010000e+09 4.776690e-01 4.381976e-01 4.947964e-01 -4.834313e-01 4.947960e-01 -4.834340e-01 4.775846e-01 4.380041e-01
3.045000e+09 4.839759e-01 4.382664e-01 4.884401e-01 -4.838714e-01 4.884396e-01 -4.838741e-01 4.838906e-01 4.380718e-01
3.080000e+09 4.902473e-01 4.382477e-01 4.821224e-01 -4.842270e-01 4.821219e-01 -4.842299e-01 4.901612e-01 4.380520e-01
3.115000e+09 4.964821e-01 4.381426e-01 4.758442e-01 -4.844999e-01 4.758436e-01 -4.845028e-01 4.963951e-01 4.379458e-01
3.150000e+09 5.026792e-01 4.379524e-01 4.696062e-01 -4.846912e-01 4.696055e-01 -4.846943e-01 5.025913e-01 4.377545e-01
3.185000e+09 5.088374e-01 4.376783e-01 4.634090e-01 -4.848025e-01 4.634083e-01 -4.848057e-01 5.087487e-01 4.374793e-01
3.220000e+09 5.149556e-01 4.373217e-01 4.572534e-01 -4.848352e-01 4.572526e-01 -4.848385e-01 5.148660e-01 4.371216e-01
3.255000e+09 5.210327e-01 4.368840e-01 4.511400e-01 -4.847905e-01 4.511392e-01 -4.847940e-01 5.209422e-01 4.366828e-01
3.290000e+09 5.270676e-01 4.363664e-01 4.450695e-01 -4.846699e-01 4.450686e-01 -4.846735e-01 5.269761e-01 4.361642e-01
3.325000e+09 5.330591e-01 4.357706e-01 4.390426e-01 -4.844748e-01 4.390416e-01 -4.844785e-01 5.329668e-01 4.355673e-01
3.360000e+09 5.390064e-01 4.350980e-01 4.330598e-01 -4.842065e-01 4.330587e-01 -4.842103e-01 5.389132e-01 4.348937e-01
3.395000e+09 5.449083e-01 4.343501e-01 4.271219e-01 -4.838664e-01 4.271207e-01 -4.838703e-01 5.448143e-01 4.341448e-01
3.430000e+09 5.507640e-01 4.335286e-01 4.212294e-01 -4.834558e-01 4.212281e-01 -4.834599e-01 5.506691e-01 4.333223e-01
3.465000e+09 5.565725e-01 4.326351e-01 4.153829e-01 -4.829761e-01 4.153815e-01 -4.829804e-01 5.564768e-01 4.324278e-01
3.500000e+09 5.623331e-01 4.316713e-01 4.095829e-01 -4.824288e-01 4.095815e-01 -4.824332e-01 5.622365e-01 4.314629e-01
3.535000e+09 5.680449e-01 4.306388e-01 4.038301e-01 -4.818152e-01 4.038286e-01 -4.818197e-01 5.679475e-01 4.304294e-01
3.570000e+09 5.737073e-01 4.295394e-01 3.981250e-01 -4.811367e-01 3.981233e-01 -4.811413e-01 5.736091e-01 4.293290e-01
3.605000e+09 5.793197e-01 4.283748e-01 3.924679e-01 -4.803947e-01 3.924662e-01 -4.803995e-01 5.792207e-01 4.281635e-01
3.640000e+09 5.848816e-01 4.271468e-01 3.868594e-01 -4.795907e-01 3.868576e-01 -4.795956e-01 5.847818e-01 4.269344e-01
3.675000e+09 5.903924e-01 4.258571e-01 3.812999e-01 -4.787260e-01 3.812980e-01 -4.787311e-01 5.902919e-01 4.256438e-01
3.710000e+09 5.958519e-01 4.245075e-01 3.757898e-01 -4.778022e-01 3.757877e-01 -4.778073e-01 5.957506e-01 4.242931e-01
3.745000e+09 6.012596e-01 4.230997e-01 3.703293e-01 -4.768205e-01 3.703271e-01 -4.768258e-01 6.011576e-01 4.228843e-01
3.780000e+09 6.066155e-01 4.216354e-01 3.649188e-01 -4.757825e-01 3.649165e-01 -4.757879e-01 6.065127e-01 4.214191e-01
3.815000e+09 6.119193e-01 4.201164e-01 3.595586e-01 -4.746895e-01 3.595562e-01 -4.746950e-01 6.118159e-01 4.198990e-01
3.850000e+09 6.171710e-01 4.185442e-01 3.542489e-01 -4.735429e-01 3.542463e-01 -4.735486e-01 6.170669e-01 4.183258e-01
3.885000e+09 6.223705e-01 4.169206e-01 3.489897e-01 -4.723442e-01 3.489870e-01 -4.723501e-01 6.222657e-01 4.167012e-01
3.920000e+09 6.275181e-01 4.152471e-01 3.437814e-01 -4.710948e-01 3.437785e-01 -4.711008e-01 6.274126e-01 4.150266e-01
3.955000e+09 6.326137e-01 4.135253e-01 3.386238e-01 -4.697960e-01 3.386209e-01 -4.698021e-01 6.325075e-01 4.133037e-01
3.990000e+09 6.376575e-01 4.117566e-01 3.335172e-01 -4.684491e-01 3.335141e-01 -4.684554e-01 6.375508e-01 4.115339e-01
4.025000e+09 6.426499e-01 4.099425e-01 3.284614e-01 -4.670556e-01 3.284582e-01 -4.670620e-01 6.425425e-01 4.097187e-01
4.060000e+09 6.475910e-01 4.080843e-01 3.234565e-01 -4.656166e-01 3.234531e-01 -4.656232e-01 6.474829e-01 4.078594e-01
4.095000e+09 6.524812e-01 4.061833e-01 3.185024e-01 -4.641336e-01 3.184989e-01 -4.641403e-01 6.523725e-01 4.059573e-01
4.130000e+09 6.573208e-01 4.042409e-01 3.135990e-01 -4.626076e-01 3.135953e-01 -4.626145e-01 6.572114e-01 4.040137e-01
4.165000e+09 6.621102e-01 4.022581e-01 3.087461e-01 -4.610401e-01 3.087422e-01 -4.610471e-01 6.620002e-01 4.020298e-01
4.200000e+09 6.668497e-01 4.002361e-01 3.039436e-01 -4.594320e-01 3.039396e-01 -4.594392e-01 6.667391e-01 4.000066e-01
4.235000e+09 6.715399e-01 3.981760e-01 2.991913e-01 -4.577847e-01 2.991871e-01 -4.577920e-01 6.714285e-01 3.979453e-01
4.270000e+09 6.761809e-01 3.960788e-01 2.944889e-01 -4.560991e-01 2.944846e-01 -4.561066e-01 6.760690e-01 3.958469e-01
4.305000e+09 6.807734e-01 3.939453e-01 2.898363e-01 -4.543764e-01 2.898318e-01 -4.543841e-01 6.806607e-01 3.937123e-01
4.340000e+09 6.853176e-01 3.917766e-01 2.852332e-01 -4.526177e-01 2.852285e-01 -4.526255e-01 6.852042e-01 3.915423e-01
4.375000e+09 6.898139e-01 3.895734e-01 2.806793e-01 -4.508238e-01 2.806744e-01 -4.508318e-01 6.896999e-01 3.893379e-01
4.410000e+09 6.942627e-01 3.873365e-01 2.761744e-01 -4.489959e-01 2.761693e-01 -4.490041e-01 6.941480e-01 3.870998e-01
4.445000e+09 6.986644e-01 3.850667e-01 2.717181e-01 -4.471349e-01 2.717128e-01 -4.471431e-01 6.985490e-01 3.848288e-01
4.480000e+09 7.030192e-01 3.827647e-01 2.673102e-01 -4.452415e-01 2.673047e-01 -4.452500e-01 7.029031e-01 3.825256e-01
4.515000e+09 7.073276e-01 3.804312e-01 2.629504e-01 -4.433168e-01 2.629447e-01 -4.433254e-01 7.072107e-01 3.801908e-01
4.550000e+09 7.115897e-01 3.780668e-01 2.586383e-01 -4.413616e-01 2.586325e-01 -4.413704e-01 7.114720e-01 3.778251e-01
4.585000e+09 7.158058e-01 3.756721e-01 2.543738e-01 -4.393766e-01 2.543677e-01 -4.393856e-01 7.156874e-01 3.754292e-01
4.620000e+09 7.199761e-01 3.732478e-01 2.501565e-01 -4.373627e-01 2.501502e-01 -4.373718e-01 7.198570e-01 3.730037e-01
4.655000e+09 7.241009e-01 3.707944e-01 2.459861e-01 -4.353207e-01 2.459796e-01 -4.353299e-01 7.239810e-01 3.705490e-01
4.690000e+09 7.281803e-01 3.683125e-01 2.418623e-01 -4.332512e-01 2.418556e-01 -4.332606e-01 7.280596e-01 3.680660e-01
4.725000e+09 7.322145e-01 3.658028e-01 2.377849e-01 -4.311549e-01 2.377779e-01 -4.311645e-01 7.320930e-01 3.655550e-01
4.760000e+09 7.362035e-01 3.632657e-01 2.337536e-01 -4.290327e-01 2.337464e-01 -4.290424e-01 7.360812e-01 3.630168e-01
4.795000e+09 7.401476e-01 3.607019e-01 2.297681e-01 -4.268851e-01 2.297607e-01 -4.268949e-01 7.400244e-01 3.604518e-01
4.830000e+09 7.440467e-01 3.581120e-01 2.258282e-01 -4.247128e-01 2.258206e-01 -4.247228e-01 7.439228e-01 3.578607e-01
4.865000e+09 7.479010e-01 3.554966e-01 2.219337e-01 -4.225165e-01 2.219258e-01 -4.225267e-01 7.477762e-01 3.552441e-01
4.900000e+09 7.517106e-01 3.528562e-01 2.180842e-01 -4.202968e-01 2.180761e-01 -4.203072e-01 7.515849e-01 3.526025e-01
4.935000e+09 7.554754e-01 3.501915e-01 2.142797e-01 -4.180544e-01 2.142713e-01 -4.180649e-01 7.553489e-01 3.499367e-01
4.970000e+09 7.591955e-01 3.475032e-01 2.105198e-01 -4.157898e-01 2.105111e-01 -4.158005e-01 7.590682e-01 3.472472e-01
5.005000e+09 7.628711e-01 3.447919e-01 2.068043e-01 -4.135038e-01 2.067954e-01 -4.135147e-01 7.627430e-01 3.445348e-01
5.040000e+09 7.665021e-01 3.420582e-01 2.031330e-01 -4.111969e-01 2.031238e-01 -4.112079e-01 7.663731e-01 3.418000e-01
5.075000e+09 7.700887e-01 3.393029e-01 1.995058e-01 -4.088698e-01 1.994963e-01 -4.088809e-01 7.699588e-01 3.390436e-01
5.110000e+09 7.736308e-01 3.365267e-01 1.959223e-01 -4.065230e-01 1.959125e-01 -4.065343e-01 7.735002e-01 3.362663e-01
5.145000e+09 7.771286e-01 3.337302e-01 1.923823e-01 -4.041571e-01 1.923723e-01 -4.041686e-01 7.769972e-01 3.334687e-01
5.180000e+09 7.805823e-01 3.309142e-01 1.888857e-01 -4.017728e-01 1.888754e-01 -4.017845e-01 7.804500e-01 3.306516e-01
5.215000e+09 7.839918e-01 3.280795e-01 1.854322e-01 -3.993708e-01 1.854216e-01 -3.993826e-01 7.838587e-01 3.278158e-01
5.250000e+09 7.873575e-01 3.252267e-01 1.820217e-01 -3.969514e-01 1.820107e-01 -3.969634e-01 7.872235e-01 3.249620e-01
5.285000e+09 7.906794e-01 3.223566e-01 1.786537e-01 -3.945155e-01 1.786425e-01 -3.945276e-01 7.905447e-01 3.220908e-01
5.320000e+09 7.939578e-01 3.194700e-01 1.753282e-01 -3.920635e-01 1.753167e-01 -3.920758e-01 7.938222e-01 3.192032e-01
5.355000e+09 7.971929e-01 3.165675e-01 1.720449e-01 -3.895961e-01 1.720330e-01 -3.896085e-01 7.970565e-01 3.162997e-01
5.390000e+09 8.003849e-01 3.136500e-01 1.688035e-01 -3.871139e-01 1.687913e-01 -3.871264e-01 8.002478e-01 3.133811e-01
5.425000e+09 8.035342e-01 3.107181e-01 1.656037e-01 -3.846174e-01 1.655912e-01 -3.846301e-01 8.033962e-01 3.104482e-01
5.460000e+09 8.066410e-01 3.077726e-01 1.624453e-01 -3.821072e-01 1.624325e-01 -3.821200e-01 8.065023e-01 3.075017e-01
5.495000e+09 8.097057e-01 3.048142e-01 1.593280e-01 -3.795839e-01 1.593148e-01 -3.795969e-01 8.095662e-01 3.045422e-01
5.530000e+09 8.127287e-01 3.018435e-01 1.562515e-01 -3.770480e-01 1.562380e-01 -3.770611e-01 8.125884e-01 3.015705e-01
5.565000e+09 8.157103e-01 2.988612e-01 1.532155e-01 -3.745001e-01 1.532016e-01 -3.745134e-01 8.155693e-01 2.985872e-01
5.600000e+09 8.186510e-01 2.958679e-01 1.502196e-01 -3.719408e-01 1.502054e-01 -3.719542e-01 8.185092e-01 2.955928e-01
5.635000e+09 8.215511e-01 2.928642e-01 1.472636e-01 -3.693705e-01 1.472490e-01 -3.693840e-01 8.214086e-01 2.925882e-01
5.670000e+09 8.244112e-01 2.898508e-01 1.443471e-01 -3.667898e-01 1.443322e-01 -3.668034e-01 8.242679e-01 2.895737e-01
5.705000e+09 8.272317e-01 2.868281e-01 1.414697e-01 -3.641991e-01 1.414545e-01 -3.642128e-01 8.270876e-01 2.865500e-01
5.740000e+09 8.300131e-01 2.837966e-01 1.386312e-01 -3.615989e-01 1.386156e-01 -3.616128e-01 8.298682e-01 2.835175e-01
5.775000e+09 8.327557e-01 2.807569e-01 1.358311e-01 -3.589898e-01 1.358151e-01 -3.590038e-01 8.326101e-01 2.804768e-01
5.810000e+09 8.354603e-01 2.777094e-01 1.330691e-01 -3.563721e-01 1.330527e-01 -3.563863e-01 8.353139e-01 2.774283e-01
5.845000e+09 8.381271e-01 2.746545e-01 1.303448e-01 -3.537463e-01 1.303281e-01 -3.537606e-01 8.379800e-01 2.743724e-01
5.880000e+09 8.407568e-01 2.715926e-01 1.276579e-01 -3.511129e-01 1.276408e-01 -3.511272e-01 8.406089e-01 2.713095e-01
5.915000e+09 8.433497e-01 2.685241e-01 1.250079e-01 -3.484721e-01 1.249905e-01 -3.484866e-01 8.432010e-01 2.682399e-01
5.950000e+09 8.459064e-01 2.654492e-01 1.223946e-01 -3.458244e-01 1.223767e-01 -3.458390e-01 8.457570e-01 2.651640e-01
5.985000e+09 8.484273e-01 2.623683e-01 1.198175e-01 -3.431701e-01 1.197992e-01 -3.431848e-01 8.482771e-01 2.620820e-01
6.020000e+09 8.509128e-01 2.592815e-01 1.172762e-01 -3.405096e-01 1.172576e-01 -3.405244e-01 8.507619e-01 2.589943e-01
6.055000e+09 8.533635e-01 2.561892e-01 1.147705e-01 -3.378432e-01 1.147514e-01 -3.378581e-01 8.532118e-01 2.559010e-01
6.090000e+09 8.557797e-01 2.530916e-01 1.122999e-01 -3.351712e-01 1.122804e-01 -3.351862e-01 8.556272e-01 2.528024e-01
6.125000e+09 8.581618e-01 2.499888e-01 1.098641e-01 -3.324940e-01 1.098442e-01 -3.325091e-01 8.580085e-01 2.496986e-01
6.160000e+09 8.605101e-01 2.468810e-01 1.074627e-01 -3.298117e-01 1.074424e-01 -3.298269e-01 8.603560e-01 2.465898e-01
6.195000e+09 8.628251e-01 2.437684e-01 1.050954e-01 -3.271247e-01 1.050747e-01 -3.271400e-01 8.626702e-01 2.434762e-01
6.230000e+09 8.651071e-01 2.406511e-01 1.027618e-01 -3.244332e-01 1.027407e-01 -3.244486e-01 8.649514e-01 2.403579e-01
6.265000e+09 8.673563e-01 2.375293e-01 1.004617e-01 -3.217375e-01 1.004401e-01 -3.217530e-01 8.671998e-01 2.372351e-01
6.300000e+09 8.695731e-01 2.344030e-01 9.819468e-02 -3.190377e-01 9.817272e-02 -3.190533e-01 8.694158e-01 2.341079e-01
6.335000e+09 8.717577e-01 2.312725e-01 9.596049e-02 -3.163342e-01 9.593810e-02 -3.163498e-01 8.715995e-01 2.309764e-01
6.370000e+09 8.739103e-01 2.281378e-01 9.375881e-02 -3.136271e-01 9.373599e-02 -3.136428e-01 8.737513e-01 2.278408e-01
6.405000e+09 8.760312e-01 2.249991e-01 9.158937e-02 -3.109166e-01 9.156611e-02 -3.109324e-01 8.758714e-01 2.247011e-01
6.440000e+09 8.781205e-01 2.218564e-01 8.945188e-02 -3.082030e-01 8.942819e-02 -3.082189e-01 8.779599e-01 2.215575e-01
6.475000e+09 8.801785e-01 2.187100e-01 8.734609e-02 -3.054864e-01 8.732195e-02 -3.055024e-01 8.800170e-01 2.184102e-01
6.510000e+09 8.822053e-01 2.155600e-01 8.527173e-02 -3.027671e-01 8.524715e-02 -3.027831e-01 8.820430e-01 2.152593e-01
6.545000e+09 8.842010e-01 2.124065e-01 8.322856e-02 -3.000452e-01 8.320352e-02 -3.000613e-01 8.840379e-01 2.121049e-01
6.580000e+09 8.861659e-01 2.092497e-01 8.121633e-02 -2.973209e-01 8.119084e-02 -2.973370e-01 8.860019e-01 2.089473e-01
6.615000e+09 8.880999e-01 2.060899e-01 7.923481e-02 -2.945944e-01 7.920887e-02 -2.946107e-01 8.879351e-01 2.057865e-01
6.650000e+09 8.900033e-01 2.029271e-01 7.728379e-02 -2.918660e-01 7.725738e-02 -2.918823e-01 8.898376e-01 2.026229e-01
6.685000e+09 8.918762e-01 1.997616e-01 7.536302e-02 -2.891358e-01 7.533616e-02 -2.891521e-01 8.917096e-01 1.994566e-01
6.720000e+09 8.937186e-01 1.965936e-01 7.347231e-02 -2.864040e-01 7.344498e-02 -2.864204e-01 8.935512e-01 1.962878e-01
6.755000e+09 8.955308e-01 1.934234e-01 7.161144e-02 -2.836708e-01 7.158363e-02 -2.836872e-01 8.953625e-01 1.931168e-01
6.790000e+09 8.973127e-01 1.902513e-01 6.978019e-02 -2.809364e-01 6.975191e-02 -2.809529e-01 8.971436e-01 1.899438e-01
6.825000e+09 8.990647e-01 1.870774e-01 6.797836e-02 -2.782011e-01 6.794960e-02 -2.782176e-01 8.988947e-01 1.867692e-01
6.860000e+09 9.007867e-01 1.839021e-01 6.620574e-02 -2.754649e-01 6.617650e-02 -2.754815e-01 9.006159e-01 1.835931e-01
6.895000e+09 9.024789e-01 1.807257e-01 6.446213e-02 -2.727282e-01 6.443240e-02 -2.727448e-01 9.023073e-01 1.804159e-01
6.930000e+09 9.041416e-01 1.775483e-01 6.274730e-02 -2.699912e-01 6.271709e-02 -2.700078e-01 9.039691e-01 1.772378e-01
6.965000e+09 9.057748e-01 1.743705e-01 6.106106e-02 -2.672540e-01 6.103036e-02 -2.672706e-01 9.056015e-01 1.740592e-01
7.000000e+09 9.073788e-01 1.711924e-01 5.940319e-02 -2.645168e-01 5.937199e-02 -2.645335e-01 9.072047e-01 1.708804e-01
7.035000e+09 9.089537e-01 1.680143e-01 5.777347e-02 -2.617800e-01 5.774178e-02 -2.617967e-01 9.087788e-01 1.677016e-01
7.070000e+09 9.104999e-01 1.648366e-01 5.617169e-02 -2.590436e-01 5.613949e-02 -2.590603e-01 9.103241e-01 1.645232e-01
7.105000e+09 9.120174e-01 1.616596e-01 5.459761e-02 -2.563079e-01 5.456491e-02 -2.563247e-01 9.118409e-01 1.613455e-01
7.140000e+09 9.135066e-01 1.584836e-01 5.305101e-02 -2.535731e-01 5.301780e-02 -2.535899e-01 9.133293e-01 1.581687e-01
7.175000e+09 9.149678e-01 1.553088e-01 5.153166e-02 -2.508394e-01 5.149793e-02 -2.508562e-01 9.147897e-01 1.549932e-01
7.210000e+09 9.164012e-01 1.521355e-01 5.003932e-02 -2.481071e-01 5.000507e-02 -2.481239e-01 9.162223e-01 1.518193e-01
7.245000e+09 9.178071e-01 1.489640e-01 4.857374e-02 -2.453762e-01 4.853897e-02 -2.453930e-01 9.176274e-01 1.486471e-01
7.280000e+09 9.191859e-01 1.457946e-01 4.713468e-02 -2.426470e-01 4.709939e-02 -2.426638e-01 9.190054e-01 1.454771e-01
7.315000e+09 9.205378e-01 1.426275e-01 4.572189e-02 -2.399197e-01 4.568607e-02 -2.399365e-01 9.203565e-01 1.423093e-01
7.350000e+09 9.218632e-01 1.394630e-01 4.433512e-02 -2.371945e-01 4.429877e-02 -2.372113e-01 9.216811e-01 1.391441e-01
7.385000e+09 9.231624e-01 1.363011e-01 4.297410e-02 -2.344714e-01 4.293722e-02 -2.344882e-01 9.229796e-01 1.359815e-01
7.420000e+09 9.244358e-01 1.331421e-01 4.163859e-02 -2.317508e-01 4.160117e-02 -2.317676e-01 9.242522e-01 1.328219e-01
7.455000e+09 9.256837e-01 1.299863e-01 4.032832e-02 -2.290326e-01 4.029036e-02 -2.290494e-01 9.254993e-01 1.296654e-01
7.490000e+09 9.269065e-01 1.268336e-01 3.904302e-02 -2.263172e-01 3.900452e-02 -2.263339e-01 9.267213e-01 1.265121e-01
7.525000e+09 9.281045e-01 1.236842e-01 3.778245e-02 -2.236045e-01 3.774339e-02 -2.236213e-01 9.279186e-01 1.233621e-01
7.560000e+09 9.292781e-01 1.205383e-01 3.654633e-02 -2.208948e-01 3.650672e-02 -2.209115e-01 9.290914e-01 1.202156e-01
7.595000e+09 9.304276e-01 1.173959e-01 3.533441e-02 -2.181881e-01 3.529425e-02 -2.182048e-01 9.302401e-01 1.170725e-01
7.630000e+09 9.315534e-01 1.142571e-01 3.414643e-02 -2.154846e-01 3.410571e-02 -2.155012e-01 9.313651e-01 1.139331e-01
7.665000e+09 9.326556e-01 1.111219e-01 3.298214e-02 -2.127843e-01 3.294087e-02 -2.128009e-01 9.324666e-01 1.107973e-01
7.700000e+09 9.337348e-01 1.079903e-01 3.184130e-02 -2.100874e-01 3.179946e-02 -2.101039e-01 9.335450e-01 1.076651e-01
7.735000e+09 9.347911e-01 1.048624e-01 3.072365e-02 -2.073938e-01 3.068125e-02 -2.074103e-01 9.346005e-01 1.045365e-01
7.770000e+09 9.358249e-01 1.017381e-01 2.962897e-02 -2.047037e-01 2.958599e-02 -2.047202e-01 9.356335e-01 1.014117e-01
7.805000e+09 9.368364e-01 9.861748e-02 2.855701e-02 -2.020172e-01 2.851347e-02 -2.020336e-01 9.366442e-01 9.829042e-02
7.840000e+09 9.378258e-01 9.550042e-02 2.750757e-02 -1.993343e-01 2.746345e-02 -1.993507e-01 9.376328e-01 9.517278e-02
7.875000e+09 9.387934e-01 9.238692e-02 2.648042e-02 -1.966550e-01 2.643572e-02 -1.966713e-01 9.385997e-01 9.205871e-02
7.910000e+09 9.397394e-01 8.927694e-02 2.547534e-02 -1.939795e-01 2.543006e-02 -1.939957e-01 9.395449e-01 8.894816e-02
7.945000e+09 9.406640e-01 8.617043e-02 2.449215e-02 -1.913076e-01 2.444629e-02 -1.913238e-01 9.404687e-01 8.584110e-02
7.980000e+09 9.415674e-01 8.306736e-02 2.353065e-02 -1.886396e-01 2.348421e-02 -1.886556e-01 9.413712e-01 8.273747e-02
8.015000e+09 9.424496e-01 7.996766e-02 2.259066e-02 -1.859753e-01 2.254363e-02 -1.859913e-01 9.422526e-01 7.963724e-02
8.050000e+09 9.433109e-01 7.687131e-02 2.167200e-02 -1.833149e-01 2.162437e-02 -1.833308e-01 9.431131e-01 7.654036e-02
8.085000e+09 9.441513e-01 7.377826e-02 2.077450e-02 -1.806584e-01 2.072628e-02 -1.806742e-01 9.439527e-01 7.344680e-02
8.120000e+09 9.449709e-01 7.068849e-02 1.989801e-02 -1.780058e-01 1.984920e-02 -1.780215e-01 9.447715e-01 7.035653e-02
8.155000e+09 9.457699e-01 6.760198e-02 1.904237e-02 -1.753571e-01 1.899296e-02 -1.753727e-01 9.455696e-01 6.726954e-02
8.190000e+09 9.465482e-01 6.451873e-02 1.820744e-02 -1.727124e-01 1.815743e-02 -1.727279e-01 9.463472e-01 6.418581e-02
8.225000e+09 9.473061e-01 6.143874e-02 1.739308e-02 -1.700718e-01 1.734247e-02 -1.700872e-01 9.471042e-01 6.110536e-02
8.260000e+09 9.480434e-01 5.836203e-02 1.659916e-02 -1.674352e-01 1.654794e-02 -1.674505e-01 9.478407e-01 5.802820e-02
8.295000e+09 9.487602e-01 5.528863e-02 1.582555e-02 -1.648027e-01 1.577373e-02 -1.648179e-01 9.485567e-01 5.495437e-02
8.330000e+09 9.494566e-01 5.221860e-02 1.507212e-02 -1.621744e-01 1.501969e-02 -1.621894e-01 9.492523e-01 5.188392e-02
8.365000e+09 9.501327e-01 4.915200e-02 1.433876e-02 -1.595503e-01 1.428573e-02 -1.595652e-01 9.499275e-01 4.881691e-02
8.400000e+09 9.507883e-01 4.608891e-02 1.362535e-02 -1.569305e-01 1.357171e-02 -1.569453e-01 9.505824e-01 4.575343e-02
8.435000e+09 9.514237e-01 4.302943e-02 1.293178e-02 -1.543150e-01 1.287752e-02 -1.543296e-01 9.512169e-01 4.269357e-02
8.470000e+09 9.520388e-01 3.997367e-02 1.225793e-02 -1.517040e-01 1.220306e-02 -1.517184e-01 9.518312e-01 3.963744e-02
8.505000e+09 9.526336e-01 3.692175e-02 1.160368e-02 -1.490974e-01 1.154819e-02 -1.491117e-01 9.524252e-01 3.658516e-02
8.540000e+09 9.532083e-01 3.387381e-02 1.096892e-02 -1.464954e-01 1.091282e-02 -1.465095e-01 9.529991e-01 3.353688e-02
8.575000e+09 9.537628e-01 3.083000e-02 1.035354e-02 -1.438980e-01 1.029682e-02 -1.439120e-01 9.535528e-01 3.049275e-02
8.610000e+09 9.542973e-01 2.779048e-02 9.757411e-03 -1.413053e-01 9.700072e-03 -1.413192e-01 9.540865e-01 2.745291e-02
8.645000e+09 9.548118e-01 2.475542e-02 9.180415e-03 -1.387175e-01 9.122456e-03 -1.387312e-01 9.546003e-01 2.441755e-02
8.680000e+09 9.553064e-01 2.172500e-02 8.622427e-03 -1.361346e-01 8.563846e-03 -1.361481e-01 9.550941e-01 2.138683e-02
8.715000e+09 9.557813e-01 1.869938e-02 8.083318e-03 -1.335566e-01 8.024114e-03 -1.335700e-01 9.555683e-01 1.836092e-02
8.750000e+09 9.562367e-01 1.567875e-02 7.562955e-03 -1.309838e-01 7.503126e-03 -1.309969e-01 9.560228e-01 1.534002e-02
8.785000e+09 9.566725e-01 1.266328e-02 7.061199e-03 -1.284161e-01 7.000745e-03 -1.284291e-01 9.564579e-01 1.232429e-02
8.820000e+09 9.570890e-01 9.653164e-03 6.577908e-03 -1.258537e-01 6.516827e-03 -1.258665e-01 9.568737e-01 9.313907e-03
8.855000e+09 9.574865e-01 6.648558e-03 6.112935e-03 -1.232966e-01 6.051226e-03 -1.233092e-01 9.572704e-01 6.309050e-03
8.890000e+09 9.578650e-01 3.649632e-03 5.666129e-03 -1.207450e-01 5.603791e-03 -1.207574e-01 9.576482e-01 3.309880e-03
8.925000e+09 9.582248e-01 6.565393e-04 5.237333e-03 -1.181990e-01 5.174364e-03 -1.182112e-01 9.580073e-01 3.165494e-04
8.960000e+09 9.585661e-01 -2.330576e-03 4.826388e-03 -1.156585e-01 4.762787e-03 -1.156705e-01 9.583478e-01 -2.670797e-03
8.995000e+09 9.588891e-01 -5.311582e-03 4.433128e-03 -1.131237e-01 4.368894e-03 -1.131355e-01 9.586702e-01 -5.652030e-03
9.030000e+09 9.591941e-01 -8.286364e-03 4.057388e-03 -1.105947e-01 3.992520e-03 -1.106063e-01 9.589745e-01 -8.627032e-03
9.065000e+09 9.594814e-01 -1.125482e-02 3.698998e-03 -1.080715e-01 3.633493e-03 -1.080829e-01 9.592610e-01 -1.159571e-02
9.100000e+09 9.597511e-01 -1.421687e-02 3.357786e-03 -1.055542e-01 3.291644e-03 -1.055654e-01 9.595301e-01 -1.455797e-02
9.135000e+09 9.600036e-01 -1.717245e-02 3.033579e-03 -1.030429e-01 2.966798e-03 -1.030538e-01 9.597819e-01 -1.751375e-02
9.170000e+09 9.602391e-01 -2.012151e-02 2.726204e-03 -1.005375e-01 2.658783e-03 -1.005481e-01 9.600167e-01 -2.046301e-02
9.205000e+09 9.604579e-01 -2.306402e-02 2.435487e-03 -9.803808e-02 2.367425e-03 -9.804852e-02 9.602348e-01 -2.340573e-02
9.240000e+09 9.606603e-01 -2.599998e-02 2.161258e-03 -9.554474e-02 2.092553e-03 -9.555494e-02 9.604364e-01 -2.634188e-02
9.275000e+09 9.608464e-01 -2.892940e-02 1.903347e-03 -9.305748e-02 1.833998e-03 -9.306743e-02 9.606218e-01 -2.927148e-02
9.310000e+09 9.610166e-01 -3.185230e-02 1.661587e-03 -9.057630e-02 1.591592e-03 -9.058600e-02 9.607913e-01 -3.219457e-02
9.345000e+09 9.611710e-01 -3.476873e-02 1.435814e-03 -8.810121e-02 1.365172e-03 -8.811066e-02 9.609450e-01 -3.511118e-02
9.380000e+09 9.613099e-01 -3.767875e-02 1.225871e-03 -8.563222e-02 1.154581e-03 -8.564140e-02 9.610833e-01 -3.802137e-02
9.415000e+09 9.614336e-01 -4.058244e-02 1.031604e-03 -8.316932e-02 9.596640e-04 -8.317824e-02 9.612062e-01 -4.092523e-02
9.450000e+09 9.615421e-01 -4.347988e-02 8.528661e-04 -8.071250e-02 7.802745e-04 -8.072115e-02 9.613141e-01 -4.382283e-02
9.485000e+09 9.616357e-01 -4.637118e-02 6.895157e-04 -7.826175e-02 6.162716e-04 -7.827013e-02 9.614070e-01 -4.671428e-02
9.520000e+09 9.617146e-01 -4.925643e-02 5.414192e-04 -7.581705e-02 4.675213e-04 -7.582515e-02 9.614852e-01 -4.959968e-02
9.555000e+09 9.617788e-01 -5.213576e-02 4.084503e-04 -7.337838e-02 3.338973e-04 -7.338620e-02 9.615487e-01 -5.247914e-02
9.590000e+09 9.618286e-01 -5.500927e-02 2.904902e-04 -7.094572e-02 2.152809e-04 -7.095325e-02 9.615977e-01 -5.535279e-02
9.625000e+09 9.618639e-01 -5.787710e-02 1.874279e-04 -6.851904e-02 1.115613e-04 -6.852627e-02 9.616324e-01 -5.822073e-02
9.660000e+09 9.618850e-01 -6.073935e-02 9.916052e-05 -6.609832e-02 2.263547e-05 -6.610524e-02 9.616527e-01 -6.108309e-02
9.695000e+09 9.618918e-01 -6.359613e-02 2.559311e-05 -6.368352e-02 -5.159135e-05 -6.369014e-02 9.616588e-01 -6.393997e-02
9.730000e+09 9.618843e-01 -6.644757e-02 -3.336162e-05 -6.127464e-02 -1.112064e-04 -6.128094e-02 9.616506e-01 -6.679150e-02
9.765000e+09 9.618627e-01 -6.929375e-02 -7.778350e-05 -5.887163e-02 -1.562893e-04 -5.887762e-02 9.616283e-01 -6.963775e-02
9.800000e+09 9.618269e-01 -7.213477e-02 -1.077453e-04 -5.647449e-02 -1.869129e-04 -5.648016e-02 9.615917e-01 -7.247883e-02
9.835000e+09 9.617769e-01 -7.497069e-02 -1.233132e-04 -5.408321e-02 -2.031432e-04 -5.408854e-02 9.615410e-01 -7.531480e-02
9.870000e+09 9.617126e-01 -7.780159e-02 -1.245476e-04 -5.169776e-02 -2.050404e-04 -5.170276e-02 9.614761e-01 -7.814574e-02
9.905000e+09 9.616341e-01 -8.062750e-02 -1.115035e-04 -4.931814e-02 -1.926594e-04 -4.932280e-02 9.613969e-01 -8.097167e-02
9.940000e+09 9.615414e-01 -8.344846e-02 -8.423148e-05 -4.694436e-02 -1.660509e-04 -4.694868e-02 9.613033e-01 -8.379263e-02
9.975000e+09 9.614342e-01 -8.626447e-02 -4.277872e-05 -4.457642e-02 -1.252616e-04 -4.458038e-02 9.611955e-01 -8.660863e-02
1.001000e+10 9.613127e-01 -8.907552e-02 1.281045e-05 -4.221434e-02 -7.033593e-05 -4.221794e-02 9.610732e-01 -8.941966e-02
1.004500e+10 9.611767e-01 -9.188158e-02 8.249340e-05 -3.985812e-02 -1.316295e-06 -3.986136e-02 9.609365e-01 -9.222568e-02
1.008000e+10 9.610261e-01 -9.468260e-02 1.662282e-04 -3.750780e-02 8.175553e-05 -3.751067e-02 9.607853e-01 -9.502664e-02
1.011500e+10 9.608610e-01 -9.747851e-02 2.639729e-04 -3.516342e-02 1.788376e-04 -3.516591e-02 9.606195e-01 -9.782248e-02
1.015000e+10 9.606813e-01 -1.002692e-01 3.756842e-04 -3.282500e-02 2.898868e-04 -3.282711e-02 9.604390e-01 -1.006131e-01
1.018500e+10 9.604869e-01 -1.030546e-01 5.013166e-04 -3.049260e-02 4.148579e-04 -3.049432e-02 9.602440e-01 -1.033984e-01
1.022000e+10 9.602778e-01 -1.058346e-01 6.408220e-04 -2.816627e-02 5.537026e-04 -2.816759e-02 9.600342e-01 -1.061783e-01
1.025500e+10 9.600540e-01 -1.086090e-01 7.941480e-04 -2.584605e-02 7.063690e-04 -2.584698e-02 9.598097e-01 -1.089526e-01
1.029000e+10 9.598155e-01 -1.113777e-01 9.612381e-04 -2.353203e-02 8.728004e-04 -2.353255e-02 9.595706e-01 -1.117211e-01
1.032500e+10 9.595624e-01 -1.141405e-01 1.142030e-03 -2.122425e-02 1.052935e-03 -2.122436e-02 9.593168e-01 -1.144838e-01
1.036000e+10 9.592946e-01 -1.168972e-01 1.336456e-03 -1.892278e-02 1.246705e-03 -1.892248e-02 9.590483e-01 -1.172403e-01
1.039500e+10 9.590121e-01 -1.196478e-01 1.544443e-03 -1.662771e-02 1.454036e-03 -1.662698e-02 9.587653e-01 -1.199907e-01
1.043000e+10 9.587152e-01 -1.223919e-01 1.765909e-03 -1.433909e-02 1.674849e-03 -1.433794e-02 9.584677e-01 -1.227346e-01
1.046500e+10 9.584039e-01 -1.251294e-01 2.000767e-03 -1.205700e-02 1.909055e-03 -1.205541e-02 9.581557e-01 -1.254719e-01
1.050000e+10 9.580782e-01 -1.278601e-01 2.248924e-03 -9.781503e-03 2.156560e-03 -9.779484e-03 9.578295e-01 -1.282024e-01
1.053500e+10 9.577384e-01 -1.305839e-01 2.510277e-03 -7.512677e-03 2.417265e-03 -7.510215e-03 9.574891e-01 -1.309260e-01
1.057000e+10 9.573846e-01 -1.333005e-01 2.784720e-03 -5.250583e-03 2.691060e-03 -5.247674e-03 9.571347e-01 -1.336424e-01
1.060500e+10 9.570170e-01 -1.360099e-01 3.072140e-03 -2.995283e-03 2.977834e-03 -2.991922e-03 9.567666e-01 -1.363516e-01
1.064000e+10 9.566358e-01 -1.387119e-01 3.372417e-03 -7.468338e-04 3.277466e-03 -7.430157e-04 9.563848e-01 -1.390533e-01
1.067500e+10 9.562412e-01 -1.414064e-01 3.685426e-03 1.494714e-03 3.589832e-03 1.498994e-03 9.559896e-01 -1.417476e-01
1.071000e+10 9.558334e-01 -1.440932e-01 4.011039e-03 3.729317e-03 3.914804e-03 3.734063e-03 9.555812e-01 -1.444341e-01
1.074500e+10 9.554126e-01 -1.467723e-01 4.349124e-03 5.956936e-03 4.252250e-03 5.962153e-03 9.551599e-01 -1.471129e-01
1.078000e+10 9.549792e-01 -1.494436e-01 4.699547e-03 8.177542e-03 4.602034e-03 8.183235e-03 9.547259e-01 -1.497840e-01
1.081500e+10 9.545333e-01 -1.521070e-01 5.062170e-03 1.039111e-02 4.964021e-03 1.039729e-02 9.542795e-01 -1.524472e-01
1.085000e+10 9.540752e-01 -1.547626e-01 5.436858e-03 1.259764e-02 5.338074e-03 1.260430e-02 9.538209e-01 -1.551025e-01
1.088500e+10 9.536052e-01 -1.574104e-01 5.823475e-03 1.479711e-02 5.724057e-03 1.480426e-02 9.533504e-01 -1.577500e-01
1.092000e+10 9.531235e-01 -1.600503e-01 6.221885e-03 1.698954e-02 6.121836e-03 1.699718e-02 9.528682e-01 -1.603896e-01
1.095500e+10 9.526304e-01 -1.626825e-01 6.631959e-03 1.917494e-02 6.531278e-03 1.918307e-02 9.523746e-01 -1.630215e-01
1.099000e+10 9.521261e-01 -1.653070e-01 7.053567e-03 2.135332e-02 6.952257e-03 2.136195e-02 9.518698e-01 -1.656457e-01
1.102500e+10 9.516109e-01 -1.679239e-01 7.486588e-03 2.352471e-02 7.384649e-03 2.353386e-02 9.513541e-01 -1.682623e-01
1.106000e+10 9.510849e-01 -1.705333e-01 7.930905e-03 2.568916e-02 7.828340e-03 2.569882e-02 9.508276e-01 -1.708715e-01
1.109500e+10 9.505483e-01 -1.731354e-01 8.386410e-03 2.784671e-02 8.283218e-03 2.785687e-02 9.502905e-01 -1.734733e-01
1.113000e+10 9.500013e-01 -1.757304e-01 8.853000e-03 2.999739e-02 8.749184e-03 3.000808e-02 9.497431e-01 -1.760680e-01
1.116500e+10 9.494441e-01 -1.783184e-01 9.330583e-03 3.214127e-02 9.226143e-03 3.215248e-02 9.491854e-01 -1.786556e-01
1.120000e+10 9.488767e-01 -1.808995e-01 9.819076e-03 3.427841e-02 9.714013e-03 3.429015e-02 9.486175e-01 -1.812365e-01
1.123500e+10 9.482993e-01 -1.834741e-01 1.031840e-02 3.640885e-02 1.021272e-02 3.642112e-02 9.480397e-01 -1.838107e-01
1.127000e+10 9.477120e-01 -1.860422e-01 1.082850e-02 3.853267e-02 1.072220e-02 3.854547e-02 9.474518e-01 -1.863785e-01
1.130500e+10 9.471147e-01 -1.886041e-01 1.134932e-02 4.064991e-02 1.124239e-02 4.066326e-02 9.468541e-01 -1.889400e-01
1.134000e+10 9.465075e-01 -1.911600e-01 1.188081e-02 4.276064e-02 1.177326e-02 4.277454e-02 9.462464e-01 -1.914955e-01
1.137500e+10 9.458904e-01 -1.937100e-01 1.242294e-02 4.486492e-02 1.231478e-02 4.487937e-02 9.456288e-01 -1.940452e-01
1.141000e+10 9.452634e-01 -1.962543e-01 1.297568e-02 4.696280e-02 1.286690e-02 4.697781e-02 9.450013e-01 -1.965891e-01
1.144500e+10 9.446262e-01 -1.987932e-01 1.353902e-02 4.905432e-02 1.342963e-02 4.906989e-02 9.443637e-01 -1.991276e-01
1.148000e+10 9.439790e-01 -2.013266e-01 1.411296e-02 5.113952e-02 1.400296e-02 5.115566e-02 9.437159e-01 -2.016606e-01
1.151500e+10 9.433214e-01 -2.038549e-01 1.469749e-02 5.321845e-02 1.458688e-02 5.323516e-02 9.430579e-01 -2.041885e-01
1.155000e+10 9.426536e-01 -2.063780e-01 1.529263e-02 5.529112e-02 1.518140e-02 5.530840e-02 9.423896e-01 -2.067111e-01
1.158500e+10 9.419751e-01 -2.088961e-01 1.589837e-02 5.735754e-02 1.578654e-02 5.737541e-02 9.417107e-01 -2.092287e-01
1.162000e+10 9.412860e-01 -2.114091e-01 1.651475e-02 5.941774e-02 1.640230e-02 5.943619e-02 9.410211e-01 -2.117413e-01
1.165500e+10 9.405860e-01 -2.139172e-01 1.714177e-02 6.147169e-02 1.702872e-02 6.149074e-02 9.403206e-01 -2.142489e-01
1.169000e+10 9.398749e-01 -2.164203e-01 1.777947e-02 6.351940e-02 1.766582e-02 6.353905e-02 9.396091e-01 -2.167515e-01
1.172500e+10 9.391526e-01 -2.189184e-01 1.842786e-02 6.556082e-02 1.831361e-02 6.558108e-02 9.388863e-01 -2.192491e-01
1.176000e+10 9.384189e-01 -2.214114e-01 1.908696e-02 6.759594e-02 1.897211e-02 6.761681e-02 9.381522e-01 -2.217415e-01
1.179500e+10 9.376736e-01 -2.238992e-01 1.975679e-02 6.962469e-02 1.964134e-02 6.964618e-02 9.374065e-01 -2.242287e-01
1.183000e+10 9.369165e-01 -2.263816e-01 2.043735e-02 7.164703e-02 2.032131e-02 7.166914e-02 9.366490e-01 -2.267106e-01
1.186500e+10 9.361476e-01 -2.288585e-01 2.112867e-02 7.366289e-02 2.101204e-02 7.368563e-02 9.358797e-01 -2.291870e-01
1.190000e+10 9.353666e-01 -2.313298e-01 2.183074e-02 7.567219e-02 2.171352e-02 7.569556e-02 9.350983e-01 -2.316576e-01
1.193500e+10 9.345735e-01 -2.337952e-01 2.254354e-02 7.767485e-02 2.242573e-02 7.769886e-02 9.343048e-01 -2.341224e-01
1.197000e+10 9.337683e-01 -2.362544e-01 2.326706e-02 7.967079e-02 2.314868e-02 7.969544e-02 9.334992e-01 -2.365810e-01
1.200500e+10 9.329507e-01 -2.387072e-01 2.400128e-02 8.165990e-02 2.388231e-02 8.168520e-02 9.326813e-01 -2.390331e-01
1.204000e+10 9.321209e-01 -2.411534e-01 2.474615e-02 8.364210e-02 2.462661e-02 8.366805e-02 9.318512e-01 -2.414787e-01
1.207500e+10 9.312789e-01 -2.435927e-01 2.550162e-02 8.561728e-02 2.538151e-02 8.564389e-02 9.310088e-01 -2.439173e-01
1.211000e+10 9.304246e-01 -2.460247e-01 2.626763e-02 8.758533e-02 2.614696e-02 8.761261e-02 9.301543e-01 -2.463486e-01
1.214500e+10 9.295582e-01 -2.484493e-01 2.704411e-02 8.954617e-02 2.692287e-02 8.957412e-02 9.292876e-01 -2.487725e-01
1.218000e+10 9.286799e-01 -2.508660e-01 2.783096e-02 9.149969e-02 2.770917e-02 9.152831e-02 9.284090e-01 -2.511885e-01
1.221500e+10 9.277897e-01 -2.532747e-01 2.862810e-02 9.344581e-02 2.850575e-02 9.347511e-02 9.275186e-01 -2.535965e-01
1.225000e+10 9.268878e-01 -2.556751e-01 2.943541e-02 9.538443e-02 2.931251e-02 9.541441e-02 9.266165e-01 -2.559962e-01
1.228500e+10 9.259746e-01 -2.580669e-01 3.025277e-02 9.731548e-02 3.012932e-02 9.734614e-02 9.257030e-01 -2.583873e-01
1.232000e+10 9.250502e-01 -2.604500e-01 3.108005e-02 9.923889e-02 3.095606e-02 9.927024e-02 9.247785e-01 -2.607696e-01
1.235500e+10 9.241149e-01 -2.628241e-01 3.191712e-02 1.011546e-01 3.179259e-02 1.011866e-01 9.238430e-01 -2.631430e-01
1.239000e+10 9.231691e-01 -2.651891e-01 3.276383e-02 1.030625e-01 3.263877e-02 1.030953e-01 9.228970e-01 -2.655073e-01
1.242500e+10 9.222131e-01 -2.675449e-01 3.362003e-02 1.049627e-01 3.349444e-02 1.049962e-01 9.219409e-01 -2.678623e-01
1.246000e+10 9.212472e-01 -2.698913e-01 3.448558e-02 1.068551e-01 3.435946e-02 1.068892e-01 9.209748e-01 -2.702080e-01
1.249500e+10 9.202718e-01 -2.722284e-01 3.536030e-02 1.087397e-01 3.523366e-02 1.087745e-01 9.199993e-01 -2.725444e-01
1.253000e+10 9.192873e-01 -2.745561e-01 3.624406e-02 1.106164e-01 3.611690e-02 1.106520e-01 9.190147e-01 -2.748713e-01
1.256500e+10 9.182940e-01 -2.768745e-01 3.713670e-02 1.124854e-01 3.700902e-02 1.125217e-01 9.180213e-01 -2.771890e-01
1.260000e+10 9.172923e-01 -2.791836e-01 3.803807e-02 1.143467e-01 3.790988e-02 1.143836e-01 9.170195e-01 -2.794974e-01
1.263500e+10 9.162825e-01 -2.814837e-01 3.894803e-02 1.162002e-01 3.881933e-02 1.162379e-01 9.160096e-01 -2.817967e-01
1.267000e+10 9.152650e-01 -2.837747e-01 3.986644e-02 1.180461e-01 3.973724e-02 1.180846e-01 9.149920e-01 -2.840870e-01
1.270500e+10 9.142401e-01 -2.860571e-01 4.079319e-02 1.198845e-01 4.066348e-02 1.199237e-01 9.139671e-01 -2.863686e-01
1.274000e+10 9.132081e-01 -2.883310e-01 4.172815e-02 1.217154e-01 4.159795e-02 1.217553e-01 9.129350e-01 -2.886417e-01
1.277500e+10 9.121692e-01 -2.905966e-01 4.267124e-02 1.235390e-01 4.254054e-02 1.235796e-01 9.118960e-01 -2.909067e-01
1.281000e+10 9.111237e-01 -2.928544e-01 4.362237e-02 1.253553e-01 4.349117e-02 1.253966e-01 9.108504e-01 -2.931637e-01
1.284500e+10 9.100717e-01 -2.951047e-01 4.458146e-02 1.271645e-01 4.444977e-02 1.272065e-01 9.097983e-01 -2.954132e-01
1.288000e+10 9.090133e-01 -2.973478e-01 4.554847e-02 1.289666e-01 4.541629e-02 1.290094e-01 9.087399e-01 -2.976555e-01
1.291500e+10 9.079486e-01 -2.995840e-01 4.652337e-02 1.307618e-01 4.639070e-02 1.308054e-01 9.076751e-01 -2.998910e-01
1.295000e+10 9.068777e-01 -3.018139e-01 4.750614e-02 1.325503e-01 4.737299e-02 1.325946e-01 9.066041e-01 -3.021200e-01
1.298500e+10 9.058006e-01 -3.040377e-01 4.849678e-02 1.343320e-01 4.836314e-02 1.343771e-01 9.055269e-01 -3.043430e-01
1.302000e+10 9.047170e-01 -3.062558e-01 4.949531e-02 1.361073e-01 4.936119e-02 1.361530e-01 9.044433e-01 -3.065604e-01
1.305500e+10 9.036270e-01 -3.084686e-01 5.050176e-02 1.378760e-01 5.036716e-02 1.379225e-01 9.033532e-01 -3.087724e-01
1.309000e+10 9.025303e-01 -3.106765e-01 5.151620e-02 1.396384e-01 5.138112e-02 1.396856e-01 9.022564e-01 -3.109794e-01
1.312500e+10 9.014267e-01 -3.128798e-01 5.253869e-02 1.413945e-01 5.240313e-02 1.414425e-01 9.011527e-01 -3.131819e-01
1.316000e+10 9.003158e-01 -3.150788e-01 5.356930e-02 1.431443e-01 5.343327e-02 1.431931e-01 9.000418e-01 -3.153799e-01
1.319500e+10 8.991975e-01 -3.172736e-01 5.460815e-02 1.448880e-01 5.447163e-02 1.449376e-01 8.989234e-01 -3.175739e-01
1.323000e+10 8.980713e-01 -3.194646e-01 5.565532e-02 1.466256e-01 5.551833e-02 1.466759e-01 8.977972e-01 -3.197639e-01
1.326500e+10 8.969369e-01 -3.216518e-01 5.671092e-02 1.483570e-01 5.657347e-02 1.484081e-01 8.966627e-01 -3.219502e-01
1.330000e+10 8.957938e-01 -3.238354e-01 5.777508e-02 1.500823e-01 5.763716e-02 1.501342e-01 8.955195e-01 -3.241328e-01
1.333500e+10 8.946416e-01 -3.260153e-01 5.884791e-02 1.518014e-01 5.870952e-02 1.518541e-01 8.943672e-01 -3.263117e-01
1.337000e+10 8.934798e-01 -3.281917e-01 5.992953e-02 1.535144e-01 5.979067e-02 1.535678e-01 8.932054e-01 -3.284871e-01
1.340500e+10 8.923080e-01 -3.303643e-01 6.102004e-02 1.552210e-01 6.088073e-02 1.552753e-01 8.920336e-01 -3.306586e-01
1.344000e+10 8.911258e-01 -3.325330e-01 6.211957e-02 1.569213e-01 6.197979e-02 1.569763e-01 8.908514e-01 -3.328263e-01
1.347500e+10 8.899327e-01 -3.346977e-01 6.322819e-02 1.586151e-01 6.308796e-02 1.586709e-01 8.896584e-01 -3.349899e-01
1.351000e+10 8.887284e-01 -3.368579e-01 6.434600e-02 1.603022e-01 6.420532e-02 1.603589e-01 8.884541e-01 -3.371490e-01
1.354500e+10 8.875124e-01 -3.390135e-01 6.547306e-02 1.619826e-01 6.533193e-02 1.620401e-01 8.872382e-01 -3.393034e-01
1.358000e+10 8.862845e-01 -3.411639e-01 6.660943e-02 1.636561e-01 6.646786e-02 1.637144e-01 8.860104e-01 -3.414527e-01
1.361500e+10 8.850443e-01 -3.433087e-01 6.775514e-02 1.653225e-01 6.761313e-02 1.653816e-01 8.847704e-01 -3.435963e-01
1.365000e+10 8.837918e-01 -3.454475e-01 6.891019e-02 1.669815e-01 6.876774e-02 1.670415e-01 8.835179e-01 -3.457339e-01
1.368500e+10 8.825266e-01 -3.475797e-01 7.007458e-02 1.686331e-01 6.993170e-02 1.686939e-01 8.822529e-01 -3.478648e-01
1.372000e+10 8.812487e-01 -3.497047e-01 7.124825e-02 1.702770e-01 7.110495e-02 1.703386e-01 8.809753e-01 -3.499886e-01
1.375500e+10 8.799581e-01 -3.518219e-01 7.243115e-02 1.719129e-01 7.228743e-02 1.719755e-01 8.796850e-01 -3.521046e-01
1.379000e+10 8.786549e-01 -3.539307e-01 7.362319e-02 1.735408e-01 7.347905e-02 1.736042e-01 8.783821e-01 -3.542122e-01
1.382500e+10 8.773393e-01 -3.560306e-01 7.482423e-02 1.751603e-01 7.467969e-02 1.752246e-01 8.770667e-01 -3.563108e-01
1.386000e+10 8.760113e-01 -3.581209e-01 7.603415e-02 1.767714e-01 7.588921e-02 1.768365e-01 8.757391e-01 -3.583999e-01
1.389500e+10 8.746715e-01 -3.602011e-01 7.725278e-02 1.783738e-01 7.710744e-02 1.784398e-01 8.743996e-01 -3.604788e-01
1.393000e+10 8.733201e-01 -3.622706e-01 7.847991e-02 1.799674e-01 7.833418e-02 1.800343e-01 8.730486e-01 -3.625470e-01
1.396500e+10 8.719576e-01 -3.643290e-01 7.971533e-02 1.815521e-01 7.956923e-02 1.816198e-01 8.716866e-01 -3.646041e-01
1.400000e+10 8.705845e-01 -3.663757e-01 8.095883e-02 1.831277e-01 8.081235e-02 1.831963e-01 8.703140e-01 -3.666496e-01
