#   Hz   S  RI   R   50
!
0.000000e+00 2.415161e-02 0.000000e+00 9.650460e-01 0.000000e+00 9.650459e-01 0.000000e+00 2.417407e-02 0.000000e+00
3.500000e+07 2.426971e-02 9.891662e-03 9.649208e-01 -1.071642e-02 9.649208e-01 -1.071642e-02 2.429212e-02 9.887233e-03
7.000000e+07 2.462380e-02 1.977501e-02 9.645456e-01 -2.142384e-02 9.645456e-01 -2.142384e-02 2.464608e-02 1.976616e-02
1.050000e+08 2.521323e-02 2.964177e-02 9.639211e-01 -3.211331e-02 9.639210e-01 -3.211331e-02 2.523529e-02 2.962850e-02
1.400000e+08 2.603695e-02 3.948370e-02 9.630483e-01 -4.277593e-02 9.630483e-01 -4.277592e-02 2.605871e-02 3.946603e-02
1.750000e+08 2.709347e-02 4.929268e-02 9.619290e-01 -5.340289e-02 9.619289e-01 -5.340288e-02 2.711484e-02 4.927063e-02
2.100000e+08 2.838091e-02 5.906067e-02 9.605652e-01 -6.398552e-02 9.605651e-01 -6.398551e-02 2.840181e-02 5.903426e-02
2.450000e+08 2.989699e-02 6.877980e-02 9.589593e-01 -7.451530e-02 9.589593e-01 -7.451528e-02 2.991734e-02 6.874905e-02
2.800000e+08 3.163904e-02 7.844234e-02 9.571144e-01 -8.498388e-02 9.571144e-01 -8.498387e-02 3.165875e-02 7.840728e-02
3.150000e+08 3.360402e-02 8.804076e-02 9.550337e-01 -9.538315e-02 9.550337e-01 -9.538313e-02 3.362302e-02 8.800144e-02
3.500000e+08 3.578854e-02 9.756775e-02 9.527210e-01 -1.057052e-01 9.527210e-01 -1.057052e-01 3.580675e-02 9.752420e-02
3.850000e+08 3.818888e-02 1.070162e-01 9.501803e-01 -1.159424e-01 9.501803e-01 -1.159424e-01 3.820622e-02 1.069685e-01
4.200000e+08 4.080099e-02 1.163794e-01 9.474161e-01 -1.260874e-01 9.474161e-01 -1.260874e-01 4.081740e-02 1.163275e-01
4.550000e+08 4.362055e-02 1.256506e-01 9.444331e-01 -1.361331e-01 9.444330e-01 -1.361331e-01 4.363594e-02 1.255946e-01
4.900000e+08 4.664293e-02 1.348237e-01 9.412363e-01 -1.460729e-01 9.412363e-01 -1.460728e-01 4.665724e-02 1.347636e-01
5.250000e+08 4.986328e-02 1.438926e-01 9.378311e-01 -1.559002e-01 9.378311e-01 -1.559002e-01 4.987645e-02 1.438286e-01
5.600000e+08 5.327651e-02 1.528517e-01 9.342231e-01 -1.656090e-01 9.342230e-01 -1.656090e-01 5.328848e-02 1.527837e-01
5.950000e+08 5.687735e-02 1.616956e-01 9.304179e-01 -1.751936e-01 9.304179e-01 -1.751936e-01 5.688805e-02 1.616238e-01
6.300000e+08 6.066031e-02 1.704194e-01 9.264216e-01 -1.846487e-01 9.264216e-01 -1.846487e-01 6.066969e-02 1.703438e-01
6.650000e+08 6.461979e-02 1.790183e-01 9.222404e-01 -1.939692e-01 9.222403e-01 -1.939692e-01 6.462780e-02 1.789389e-01
7.000000e+08 6.875002e-02 1.874880e-01 9.178804e-01 -2.031506e-01 9.178804e-01 -2.031505e-01 6.875660e-02 1.874050e-01
7.350000e+08 7.304515e-02 1.958245e-01 9.133482e-01 -2.121885e-01 9.133481e-01 -2.121885e-01 7.305026e-02 1.957378e-01
7.700000e+08 7.749924e-02 2.040241e-01 9.086501e-01 -2.210791e-01 9.086501e-01 -2.210791e-01 7.750283e-02 2.039338e-01
8.050000e+08 8.210627e-02 2.120834e-01 9.037928e-01 -2.298189e-01 9.037928e-01 -2.298189e-01 8.210831e-02 2.119897e-01
8.400000e+08 8.686021e-02 2.199994e-01 8.987828e-01 -2.384047e-01 8.987828e-01 -2.384046e-01 8.686066e-02 2.199023e-01
8.750000e+08 9.175498e-02 2.277695e-01 8.936268e-01 -2.468337e-01 8.936268e-01 -2.468337e-01 9.175380e-02 2.276691e-01
9.100000e+08 9.678453e-02 2.353912e-01 8.883313e-01 -2.551034e-01 8.883313e-01 -2.551034e-01 9.678169e-02 2.352875e-01
9.450000e+08 1.019428e-01 2.428625e-01 8.829029e-01 -2.632119e-01 8.829029e-01 -2.632119e-01 1.019383e-01 2.427556e-01
9.800000e+08 1.072238e-01 2.501816e-01 8.773482e-01 -2.711572e-01 8.773482e-01 -2.711572e-01 1.072175e-01 2.500716e-01
1.015000e+09 1.126215e-01 2.573470e-01 8.716736e-01 -2.789379e-01 8.716736e-01 -2.789379e-01 1.126135e-01 2.572340e-01
1.050000e+09 1.181301e-01 2.643576e-01 8.658855e-01 -2.865528e-01 8.658855e-01 -2.865528e-01 1.181204e-01 2.642416e-01
1.085000e+09 1.237437e-01 2.712123e-01 8.599903e-01 -2.940011e-01 8.599903e-01 -2.940011e-01 1.237323e-01 2.710934e-01
1.120000e+09 1.294567e-01 2.779105e-01 8.539941e-01 -3.012822e-01 8.539941e-01 -3.012822e-01 1.294434e-01 2.777887e-01
1.155000e+09 1.352634e-01 2.844517e-01 8.479031e-01 -3.083957e-01 8.479031e-01 -3.083958e-01 1.352483e-01 2.843272e-01
1.190000e+09 1.411583e-01 2.908358e-01 8.417231e-01 -3.153416e-01 8.417230e-01 -3.153417e-01 1.411414e-01 2.907086e-01
1.225000e+09 1.471360e-01 2.970627e-01 8.354599e-01 -3.221201e-01 8.354599e-01 -3.221201e-01 1.471174e-01 2.969329e-01
1.260000e+09 1.531913e-01 3.031326e-01 8.291193e-01 -3.287314e-01 8.291193e-01 -3.287314e-01 1.531709e-01 3.030003e-01
1.295000e+09 1.593191e-01 3.090460e-01 8.227068e-01 -3.351762e-01 8.227068e-01 -3.351762e-01 1.592968e-01 3.089111e-01
1.330000e+09 1.655143e-01 3.148033e-01 8.162277e-01 -3.414552e-01 8.162277e-01 -3.414553e-01 1.654903e-01 3.146660e-01
1.365000e+09 1.717723e-01 3.204054e-01 8.096871e-01 -3.475695e-01 8.096871e-01 -3.475696e-01 1.717464e-01 3.202657e-01
1.400000e+09 1.780882e-01 3.258531e-01 8.030902e-01 -3.535201e-01 8.030902e-01 -3.535202e-01 1.780606e-01 3.257111e-01
1.435000e+09 1.844576e-01 3.311474e-01 7.964417e-01 -3.593083e-01 7.964417e-01 -3.593083e-01 1.844282e-01 3.310031e-01
1.470000e+09 1.908761e-01 3.362894e-01 7.897464e-01 -3.649354e-01 7.897464e-01 -3.649355e-01 1.908450e-01 3.361430e-01
1.505000e+09 1.973395e-01 3.412804e-01 7.830087e-01 -3.704031e-01 7.830087e-01 -3.704032e-01 1.973066e-01 3.411319e-01
1.540000e+09 2.038437e-01 3.461219e-01 7.762329e-01 -3.757129e-01 7.762329e-01 -3.757130e-01 2.038090e-01 3.459712e-01
1.575000e+09 2.103848e-01 3.508152e-01 7.694234e-01 -3.808666e-01 7.694234e-01 -3.808667e-01 2.103484e-01 3.506625e-01
1.610000e+09 2.169590e-01 3.553618e-01 7.625839e-01 -3.858659e-01 7.625839e-01 -3.858660e-01 2.169209e-01 3.552072e-01
1.645000e+09 2.235627e-01 3.597634e-01 7.557185e-01 -3.907128e-01 7.557185e-01 -3.907129e-01 2.235230e-01 3.596068e-01
1.680000e+09 2.301925e-01 3.640217e-01 7.488306e-01 -3.954092e-01 7.488306e-01 -3.954093e-01 2.301511e-01 3.638632e-01
1.715000e+09 2.368450e-01 3.681384e-01 7.419239e-01 -3.999572e-01 7.419239e-01 -3.999573e-01 2.368019e-01 3.679780e-01
1.750000e+09 2.435171e-01 3.721152e-01 7.350017e-01 -4.043588e-01 7.350017e-01 -4.043589e-01 2.434723e-01 3.719531e-01
1.785000e+09 2.502056e-01 3.759539e-01 7.280672e-01 -4.086160e-01 7.280672e-01 -4.086162e-01 2.501593e-01 3.757901e-01
1.820000e+09 2.569077e-01 3.796565e-01 7.211233e-01 -4.127311e-01 7.211233e-01 -4.127313e-01 2.568598e-01 3.794909e-01
1.855000e+09 2.636207e-01 3.832248e-01 7.141731e-01 -4.167062e-01 7.141731e-01 -4.167064e-01 2.635712e-01 3.830575e-01
1.890000e+09 2.703417e-01 3.866606e-01 7.072193e-01 -4.205435e-01 7.072193e-01 -4.205436e-01 2.702907e-01 3.864917e-01
1.925000e+09 2.770684e-01 3.899659e-01 7.002645e-01 -4.242450e-01 7.002645e-01 -4.242452e-01 2.770158e-01 3.897954e-01
1.960000e+09 2.837982e-01 3.931426e-01 6.933111e-01 -4.278132e-01 6.933111e-01 -4.278133e-01 2.837442e-01 3.929705e-01
1.995000e+09 2.905290e-01 3.961926e-01 6.863617e-01 -4.312500e-01 6.863616e-01 -4.312501e-01 2.904734e-01 3.960189e-01
2.030000e+09 2.972584e-01 3.991179e-01 6.794183e-01 -4.345577e-01 6.794183e-01 -4.345579e-01 2.972014e-01 3.989426e-01
2.065000e+09 3.039844e-01 4.019202e-01 6.724832e-01 -4.377385e-01 6.724832e-01 -4.377387e-01 3.039260e-01 4.017435e-01
2.100000e+09 3.107050e-01 4.046016e-01 6.655583e-01 -4.407945e-01 6.655583e-01 -4.407947e-01 3.106452e-01 4.044234e-01
2.135000e+09 3.174183e-01 4.071639e-01 6.586456e-01 -4.437279e-01 6.586456e-01 -4.437281e-01 3.173572e-01 4.069842e-01
2.170000e+09 3.241225e-01 4.096091e-01 6.517469e-01 -4.465409e-01 6.517469e-01 -4.465410e-01 3.240600e-01 4.094280e-01
2.205000e+09 3.308158e-01 4.119389e-01 6.448639e-01 -4.492354e-01 6.448639e-01 -4.492356e-01 3.307521e-01 4.117564e-01
2.240000e+09 3.374967e-01 4.141553e-01 6.379982e-01 -4.518136e-01 6.379982e-01 -4.518138e-01 3.374317e-01 4.139713e-01
2.275000e+09 3.441636e-01 4.162600e-01 6.311514e-01 -4.542776e-01 6.311514e-01 -4.542778e-01 3.440973e-01 4.160746e-01
2.310000e+09 3.508150e-01 4.182549e-01 6.243250e-01 -4.566294e-01 6.243250e-01 -4.566296e-01 3.507475e-01 4.180682e-01
2.345000e+09 3.574495e-01 4.201418e-01 6.175202e-01 -4.588709e-01 6.175202e-01 -4.588711e-01 3.573807e-01 4.199537e-01
2.380000e+09 3.640657e-01 4.219224e-01 6.107385e-01 -4.610043e-01 6.107384e-01 -4.610045e-01 3.639958e-01 4.217329e-01
2.415000e+09 3.706624e-01 4.235984e-01 6.039809e-01 -4.630313e-01 6.039809e-01 -4.630315e-01 3.705913e-01 4.234076e-01
2.450000e+09 3.772383e-01 4.251716e-01 5.972488e-01 -4.649539e-01 5.972488e-01 -4.649541e-01 3.771661e-01 4.249795e-01
2.485000e+09 3.837923e-01 4.266437e-01 5.905432e-01 -4.667739e-01 5.905432e-01 -4.667742e-01 3.837190e-01 4.264503e-01
2.520000e+09 3.903233e-01 4.280164e-01 5.838651e-01 -4.684934e-01 5.838651e-01 -4.684936e-01 3.902489e-01 4.278216e-01
2.555000e+09 3.968302e-01 4.292912e-01 5.772156e-01 -4.701139e-01 5.772156e-01 -4.701141e-01 3.967547e-01 4.290951e-01
2.590000e+09 4.033121e-01 4.304698e-01 5.705955e-01 -4.716373e-01 5.705955e-01 -4.716376e-01 4.032355e-01 4.302724e-01
2.625000e+09 4.097679e-01 4.315537e-01 5.640058e-01 -4.730655e-01 5.640058e-01 -4.730657e-01 4.096903e-01 4.313550e-01
2.660000e+09 4.161968e-01 4.325447e-01 5.574473e-01 -4.743999e-01 5.574472e-01 -4.744002e-01 4.161182e-01 4.323446e-01
2.695000e+09 4.225978e-01 4.334440e-01 5.509207e-01 -4.756425e-01 5.509207e-01 -4.756427e-01 4.225183e-01 4.332427e-01
2.730000e+09 4.289702e-01 4.342534e-01 5.444269e-01 -4.767947e-01 5.444268e-01 -4.767950e-01 4.288898e-01 4.340508e-01
2.765000e+09 4.353132e-01 4.349742e-01 5.379664e-01 -4.778583e-01 5.379664e-01 -4.778585e-01 4.352318e-01 4.347703e-01
2.800000e+09 4.416260e-01 4.356080e-01 5.315401e-01 -4.788348e-01 5.315401e-01 -4.788350e-01 4.415437e-01 4.354028e-01
2.835000e+09 4.479078e-01 4.361561e-01 5.251486e-01 -4.797257e-01 5.251486e-01 -4.797260e-01 4.478246e-01 4.359496e-01
2.870000e+09 4.541580e-01 4.366200e-01 5.187924e-01 -4.805327e-01 5.187923e-01 -4.805329e-01 4.540739e-01 4.364122e-01
2.905000e+09 4.603759e-01 4.370011e-01 5.124721e-01 -4.812571e-01 5.124720e-01 -4.812574e-01 4.602910e-01 4.367919e-01
2.940000e+09 4.665609e-01 4.373008e-01 5.061882e-01 -4.819006e-01 5.061882e-01 -4.819008e-01 4.664751e-01 4.370902e-01
2.975000e+09 4.727123e-01 4.375203e-01 4.999414e-01 -4.824644e-01 4.999413e-01 -4.824647e-01 4.726258e-01 4.373084e-01
3.010000e+09 4.788297e-01 4.376610e-01 4.937320e-01 -4.829501e-01 4.937319e-01 -4.829503e-01 4.787423e-01 4.374478e-01
3.045000e+09 4.849123e-01 4.377242e-01 4.875605e-01 -4.833589e-01 4.875605e-01 -4.833592e-01 4.848241e-01 4.375097e-01
3.080000e+09 4.909597e-01 4.377112e-01 4.814274e-01 -4.836924e-01 4.814274e-01 -4.836927e-01 4.908708e-01 4.374954e-01
3.115000e+09 4.969714e-01 4.376233e-01 4.753331e-01 -4.839518e-01 4.753331e-01 -4.839521e-01 4.968817e-01 4.374061e-01
3.150000e+09 5.029469e-01 4.374617e-01 4.692780e-01 -4.841384e-01 4.692779e-01 -4.841387e-01 5.028564e-01 4.372431e-01
3.185000e+09 5.088856e-01 4.372276e-01 4.632624e-01 -4.842536e-01 4.632624e-01 -4.842539e-01 5.087944e-01 4.370077e-01
3.220000e+09 5.147872e-01 4.369223e-01 4.572868e-01 -4.842986e-01 4.572868e-01 -4.842989e-01 5.146953e-01 4.367010e-01
3.255000e+09 5.206512e-01 4.365469e-01 4.513514e-01 -4.842746e-01 4.513514e-01 -4.842749e-01 5.205585e-01 4.363242e-01
3.290000e+09 5.264771e-01 4.361026e-01 4.454566e-01 -4.841829e-01 4.454566e-01 -4.841832e-01 5.263838e-01 4.358785e-01
3.325000e+09 5.322647e-01 4.355906e-01 4.396027e-01 -4.840248e-01 4.396027e-01 -4.840250e-01 5.321707e-01 4.353651e-01
3.360000e+09 5.380134e-01 4.350119e-01 4.337901e-01 -4.838013e-01 4.337901e-01 -4.838015e-01 5.379187e-01 4.347850e-01
3.395000e+09 5.437230e-01 4.343679e-01 4.280189e-01 -4.835136e-01 4.280188e-01 -4.835139e-01 5.436276e-01 4.341395e-01
3.430000e+09 5.493930e-01 4.336594e-01 4.222894e-01 -4.831630e-01 4.222894e-01 -4.831633e-01 5.492970e-01 4.334296e-01
3.465000e+09 5.550232e-01 4.328877e-01 4.166019e-01 -4.827505e-01 4.166019e-01 -4.827508e-01 5.549265e-01 4.326565e-01
3.500000e+09 5.606131e-01 4.320539e-01 4.109566e-01 -4.822772e-01 4.109566e-01 -4.822775e-01 5.605158e-01 4.318211e-01
3.535000e+09 5.661625e-01 4.311589e-01 4.053538e-01 -4.817443e-01 4.053538e-01 -4.817446e-01 5.660646e-01 4.309247e-01
3.570000e+09 5.716712e-01 4.302039e-01 3.997936e-01 -4.811529e-01 3.997936e-01 -4.811532e-01 5.715726e-01 4.299683e-01
3.605000e+09 5.771387e-01 4.291899e-01 3.942764e-01 -4.805039e-01 3.942764e-01 -4.805042e-01 5.770395e-01 4.289528e-01
3.640000e+09 5.825648e-01 4.281180e-01 3.888021e-01 -4.797986e-01 3.888021e-01 -4.797989e-01 5.824651e-01 4.278794e-01
3.675000e+09 5.879493e-01 4.269892e-01 3.833711e-01 -4.790378e-01 3.833711e-01 -4.790381e-01 5.878490e-01 4.267490e-01
3.710000e+09 5.932919e-01 4.258044e-01 3.779835e-01 -4.782226e-01 3.779835e-01 -4.782229e-01 5.931910e-01 4.255627e-01
3.745000e+09 5.985924e-01 4.245647e-01 3.726395e-01 -4.773541e-01 3.726395e-01 -4.773544e-01 5.984909e-01 4.243215e-01
3.780000e+09 6.038506e-01 4.232711e-01 3.673391e-01 -4.764333e-01 3.673391e-01 -4.764336e-01 6.037484e-01 4.230263e-01
3.815000e+09 6.090661e-01 4.219246e-01 3.620826e-01 -4.754610e-01 3.620826e-01 -4.754613e-01 6.089634e-01 4.216782e-01
3.850000e+09 6.142389e-01 4.205261e-01 3.568701e-01 -4.744384e-01 3.568701e-01 -4.744387e-01 6.141356e-01 4.202781e-01
3.885000e+09 6.193687e-01 4.190765e-01 3.517017e-01 -4.733663e-01 3.517017e-01 -4.733666e-01 6.192648e-01 4.188270e-01
3.920000e+09 6.244554e-01 4.175770e-01 3.465775e-01 -4.722457e-01 3.465775e-01 -4.722460e-01 6.243509e-01 4.173258e-01
3.955000e+09 6.294988e-01 4.160283e-01 3.414976e-01 -4.710776e-01 3.414976e-01 -4.710779e-01 6.293937e-01 4.157755e-01
3.990000e+09 6.344986e-01 4.144314e-01 3.364621e-01 -4.698628e-01 3.364621e-01 -4.698631e-01 6.343930e-01 4.141771e-01
4.025000e+09 6.394549e-01 4.127873e-01 3.314710e-01 -4.686024e-01 3.314711e-01 -4.686027e-01 6.393487e-01 4.125313e-01
4.060000e+09 6.443673e-01 4.110968e-01 3.265246e-01 -4.672971e-01 3.265246e-01 -4.672974e-01 6.442605e-01 4.108392e-01
4.095000e+09 6.492359e-01 4.093609e-01 3.216227e-01 -4.659480e-01 3.216227e-01 -4.659483e-01 6.491285e-01 4.091017e-01
4.130000e+09 6.540604e-01 4.075805e-01 3.167656e-01 -4.645558e-01 3.167656e-01 -4.645562e-01 6.539525e-01 4.073196e-01
4.165000e+09 6.588408e-01 4.057564e-01 3.119531e-01 -4.631216e-01 3.119532e-01 -4.631219e-01 6.587323e-01 4.054938e-01
4.200000e+09 6.635770e-01 4.038896e-01 3.071855e-01 -4.616460e-01 3.071855e-01 -4.616463e-01 6.634679e-01 4.036253e-01
4.235000e+09 6.682688e-01 4.019809e-01 3.024626e-01 -4.601301e-01 3.024626e-01 -4.601304e-01 6.681592e-01 4.017149e-01
4.270000e+09 6.729163e-01 4.000312e-01 2.977846e-01 -4.585745e-01 2.977846e-01 -4.585749e-01 6.728060e-01 3.997635e-01
4.305000e+09 6.775192e-01 3.980413e-01 2.931514e-01 -4.569803e-01 2.931515e-01 -4.569806e-01 6.774084e-01 3.977719e-01
4.340000e+09 6.820777e-01 3.960121e-01 2.885631e-01 -4.553482e-01 2.885632e-01 -4.553485e-01 6.819662e-01 3.957410e-01
4.375000e+09 6.865915e-01 3.939445e-01 2.840197e-01 -4.536790e-01 2.840197e-01 -4.536793e-01 6.864795e-01 3.936716e-01
4.410000e+09 6.910607e-01 3.918392e-01 2.795211e-01 -4.519736e-01 2.795211e-01 -4.519739e-01 6.909481e-01 3.915646e-01
4.445000e+09 6.954852e-01 3.896971e-01 2.750673e-01 -4.502327e-01 2.750674e-01 -4.502330e-01 6.953720e-01 3.894207e-01
4.480000e+09 6.998650e-01 3.875191e-01 2.706584e-01 -4.484572e-01 2.706584e-01 -4.484575e-01 6.997512e-01 3.872409e-01
4.515000e+09 7.042002e-01 3.853059e-01 2.662943e-01 -4.466479e-01 2.662943e-01 -4.466482e-01 7.040857e-01 3.850259e-01
4.550000e+09 7.084906e-01 3.830583e-01 2.619749e-01 -4.448054e-01 2.619749e-01 -4.448057e-01 7.083755e-01 3.827766e-01
4.585000e+09 7.127363e-01 3.807772e-01 2.577002e-01 -4.429307e-01 2.577002e-01 -4.429310e-01 7.126206e-01 3.804937e-01
4.620000e+09 7.169373e-01 3.784633e-01 2.534702e-01 -4.410244e-01 2.534702e-01 -4.410247e-01 7.168210e-01 3.781780e-01
4.655000e+09 7.210936e-01 3.761174e-01 2.492848e-01 -4.390874e-01 2.492848e-01 -4.390877e-01 7.209767e-01 3.758303e-01
4.690000e+09 7.252053e-01 3.737404e-01 2.451439e-01 -4.371203e-01 2.451439e-01 -4.371206e-01 7.250878e-01 3.734514e-01
4.725000e+09 7.292723e-01 3.713329e-01 2.410475e-01 -4.351239e-01 2.410475e-01 -4.351242e-01 7.291542e-01 3.710421e-01
4.760000e+09 7.332948e-01 3.688957e-01 2.369955e-01 -4.330990e-01 2.369955e-01 -4.330993e-01 7.331760e-01 3.686030e-01
4.795000e+09 7.372728e-01 3.664295e-01 2.329877e-01 -4.310463e-01 2.329878e-01 -4.310466e-01 7.371534e-01 3.661351e-01
4.830000e+09 7.412063e-01 3.639353e-01 2.290242e-01 -4.289664e-01 2.290242e-01 -4.289667e-01 7.410862e-01 3.636389e-01
4.865000e+09 7.450955e-01 3.614135e-01 2.251048e-01 -4.268602e-01 2.251048e-01 -4.268605e-01 7.449747e-01 3.611154e-01
4.900000e+09 7.489404e-01 3.588651e-01 2.212294e-01 -4.247282e-01 2.212294e-01 -4.247285e-01 7.488189e-01 3.585651e-01
4.935000e+09 7.527410e-01 3.562907e-01 2.173978e-01 -4.225712e-01 2.173979e-01 -4.225716e-01 7.526189e-01 3.559888e-01
4.970000e+09 7.564975e-01 3.536910e-01 2.136100e-01 -4.203900e-01 2.136101e-01 -4.203903e-01 7.563747e-01 3.533872e-01
5.005000e+09 7.602100e-01 3.510667e-01 2.098659e-01 -4.181851e-01 2.098659e-01 -4.181854e-01 7.600865e-01 3.507611e-01
5.040000e+09 7.638787e-01 3.484186e-01 2.061652e-01 -4.159572e-01 2.061653e-01 -4.159575e-01 7.637545e-01 3.481111e-01
5.075000e+09 7.675035e-01 3.457474e-01 2.025080e-01 -4.137070e-01 2.025080e-01 -4.137073e-01 7.673786e-01 3.454380e-01
5.110000e+09 7.710847e-01 3.430536e-01 1.988939e-01 -4.114352e-01 1.988940e-01 -4.114355e-01 7.709590e-01 3.427423e-01
5.145000e+09 7.746223e-01 3.403381e-01 1.953229e-01 -4.091423e-01 1.953229e-01 -4.091427e-01 7.744960e-01 3.400249e-01
5.180000e+09 7.781166e-01 3.376014e-01 1.917948e-01 -4.068291e-01 1.917949e-01 -4.068295e-01 7.779895e-01 3.372863e-01
5.215000e+09 7.815676e-01 3.348443e-01 1.883094e-01 -4.044962e-01 1.883095e-01 -4.044966e-01 7.814398e-01 3.345272e-01
5.250000e+09 7.849756e-01 3.320673e-01 1.848666e-01 -4.021442e-01 1.848667e-01 -4.021445e-01 7.848470e-01 3.317484e-01
5.285000e+09 7.883406e-01 3.292712e-01 1.814662e-01 -3.997737e-01 1.814663e-01 -3.997741e-01 7.882113e-01 3.289503e-01
5.320000e+09 7.916629e-01 3.264566e-01 1.781081e-01 -3.973854e-01 1.781081e-01 -3.973857e-01 7.915328e-01 3.261337e-01
5.355000e+09 7.949426e-01 3.236240e-01 1.747919e-01 -3.949797e-01 1.747920e-01 -3.949800e-01 7.948118e-01 3.232993e-01
5.390000e+09 7.981799e-01 3.207742e-01 1.715176e-01 -3.925574e-01 1.715176e-01 -3.925577e-01 7.980483e-01 3.204475e-01
5.425000e+09 8.013751e-01 3.179077e-01 1.682849e-01 -3.901190e-01 1.682849e-01 -3.901193e-01 8.012426e-01 3.175791e-01
5.460000e+09 8.045282e-01 3.150251e-01 1.650936e-01 -3.876650e-01 1.650937e-01 -3.876654e-01 8.043949e-01 3.146946e-01
5.495000e+09 8.076395e-01 3.121271e-01 1.619435e-01 -3.851962e-01 1.619436e-01 -3.851965e-01 8.075055e-01 3.117946e-01
5.530000e+09 8.107092e-01 3.092142e-01 1.588345e-01 -3.827129e-01 1.588346e-01 -3.827132e-01 8.105743e-01 3.088798e-01
5.565000e+09 8.137376e-01 3.062870e-01 1.557662e-01 -3.802158e-01 1.557663e-01 -3.802161e-01 8.136019e-01 3.059507e-01
5.600000e+09 8.167247e-01 3.033462e-01 1.527385e-01 -3.777054e-01 1.527386e-01 -3.777058e-01 8.165882e-01 3.030079e-01
5.635000e+09 8.196710e-01 3.003921e-01 1.497511e-01 -3.751823e-01 1.497512e-01 -3.751827e-01 8.195336e-01 3.000519e-01
5.670000e+09 8.225765e-01 2.974255e-01 1.468039e-01 -3.726470e-01 1.468039e-01 -3.726473e-01 8.224382e-01 2.970833e-01
5.705000e+09 8.254415e-01 2.944468e-01 1.438965e-01 -3.701000e-01 1.438965e-01 -3.701003e-01 8.253024e-01 2.941027e-01
5.740000e+09 8.282663e-01 2.914566e-01 1.410287e-01 -3.675418e-01 1.410287e-01 -3.675421e-01 8.281263e-01 2.911106e-01
5.775000e+09 8.310511e-01 2.884555e-01 1.382002e-01 -3.649729e-01 1.382003e-01 -3.649733e-01 8.309102e-01 2.881075e-01
5.810000e+09 8.337962e-01 2.854439e-01 1.354109e-01 -3.623939e-01 1.354110e-01 -3.623943e-01 8.336544e-01 2.850939e-01
5.845000e+09 8.365018e-01 2.824224e-01 1.326605e-01 -3.598052e-01 1.326606e-01 -3.598056e-01 8.363591e-01 2.820704e-01
5.880000e+09 8.391682e-01 2.793914e-01 1.299487e-01 -3.572073e-01 1.299487e-01 -3.572077e-01 8.390245e-01 2.790375e-01
5.915000e+09 8.417956e-01 2.763515e-01 1.272752e-01 -3.546007e-01 1.272752e-01 -3.546011e-01 8.416510e-01 2.759957e-01
5.950000e+09 8.443843e-01 2.733032e-01 1.246398e-01 -3.519859e-01 1.246398e-01 -3.519862e-01 8.442388e-01 2.729454e-01
5.985000e+09 8.469346e-01 2.702469e-01 1.220422e-01 -3.493632e-01 1.220422e-01 -3.493636e-01 8.467882e-01 2.698871e-01
6.020000e+09 8.494468e-01 2.671831e-01 1.194821e-01 -3.467332e-01 1.194822e-01 -3.467336e-01 8.492994e-01 2.668214e-01
6.055000e+09 8.519211e-01 2.641123e-01 1.169593e-01 -3.440963e-01 1.169594e-01 -3.440967e-01 8.517727e-01 2.637487e-01
6.090000e+09 8.543579e-01 2.610349e-01 1.144735e-01 -3.414530e-01 1.144735e-01 -3.414533e-01 8.542085e-01 2.606693e-01
6.125000e+09 8.567573e-01 2.579514e-01 1.120243e-01 -3.388036e-01 1.120244e-01 -3.388039e-01 8.566070e-01 2.575839e-01
6.160000e+09 8.591198e-01 2.548622e-01 1.096116e-01 -3.361486e-01 1.096117e-01 -3.361489e-01 8.589684e-01 2.544928e-01
6.195000e+09 8.614456e-01 2.517678e-01 1.072350e-01 -3.334884e-01 1.072351e-01 -3.334887e-01 8.612932e-01 2.513964e-01
6.230000e+09 8.637349e-01 2.486685e-01 1.048942e-01 -3.308234e-01 1.048943e-01 -3.308237e-01 8.635815e-01 2.482952e-01
6.265000e+09 8.659882e-01 2.455649e-01 1.025890e-01 -3.281540e-01 1.025890e-01 -3.281543e-01 8.658338e-01 2.451896e-01
6.300000e+09 8.682057e-01 2.424572e-01 1.003189e-01 -3.254806e-01 1.003190e-01 -3.254809e-01 8.680502e-01 2.420800e-01
6.335000e+09 8.703877e-01 2.393459e-01 9.808389e-02 -3.228035e-01 9.808396e-02 -3.228039e-01 8.702312e-01 2.389667e-01
6.370000e+09 8.725345e-01 2.362313e-01 9.588346e-02 -3.201232e-01 9.588354e-02 -3.201235e-01 8.723770e-01 2.358503e-01
6.405000e+09 8.746465e-01 2.331139e-01 9.371737e-02 -3.174400e-01 9.371745e-02 -3.174403e-01 8.744879e-01 2.327310e-01
6.440000e+09 8.767239e-01 2.299941e-01 9.158532e-02 -3.147542e-01 9.158539e-02 -3.147545e-01 8.765642e-01 2.296092e-01
6.475000e+09 8.787671e-01 2.268721e-01 8.948699e-02 -3.120662e-01 8.948706e-02 -3.120666e-01 8.786063e-01 2.264853e-01
6.510000e+09 8.807764e-01 2.237483e-01 8.742207e-02 -3.093764e-01 8.742215e-02 -3.093768e-01 8.806145e-01 2.233596e-01
6.545000e+09 8.827521e-01 2.206232e-01 8.539027e-02 -3.066851e-01 8.539035e-02 -3.066854e-01 8.825891e-01 2.202325e-01
6.580000e+09 8.846945e-01 2.174969e-01 8.339126e-02 -3.039925e-01 8.339134e-02 -3.039929e-01 8.845304e-01 2.171044e-01
6.615000e+09 8.866039e-01 2.143699e-01 8.142474e-02 -3.012991e-01 8.142481e-02 -3.012995e-01 8.864387e-01 2.139755e-01
6.650000e+09 8.884808e-01 2.112425e-01 7.949038e-02 -2.986051e-01 7.949046e-02 -2.986055e-01 8.883144e-01 2.108461e-01
6.685000e+09 8.903254e-01 2.081149e-01 7.758788e-02 -2.959108e-01 7.758796e-02 -2.959112e-01 8.901578e-01 2.077167e-01
6.720000e+09 8.921380e-01 2.049876e-01 7.571693e-02 -2.932166e-01 7.571700e-02 -2.932170e-01 8.919693e-01 2.045874e-01
6.755000e+09 8.939189e-01 2.018607e-01 7.387719e-02 -2.905227e-01 7.387727e-02 -2.905230e-01 8.937491e-01 2.014586e-01
6.790000e+09 8.956686e-01 1.987346e-01 7.206837e-02 -2.878293e-01 7.206844e-02 -2.878297e-01 8.954976e-01 1.983306e-01
6.825000e+09 8.973872e-01 1.956095e-01 7.029013e-02 -2.851369e-01 7.029021e-02 -2.851372e-01 8.972151e-01 1.952037e-01
6.860000e+09 8.990753e-01 1.924857e-01 6.854217e-02 -2.824455e-01 6.854224e-02 -2.824459e-01 8.989019e-01 1.920781e-01
6.895000e+09 9.007330e-01 1.893636e-01 6.682416e-02 -2.797556e-01 6.682423e-02 -2.797559e-01 9.005584e-01 1.889540e-01
6.930000e+09 9.023607e-01 1.862432e-01 6.513578e-02 -2.770672e-01 6.513586e-02 -2.770676e-01 9.021849e-01 1.858318e-01
6.965000e+09 9.039588e-01 1.831250e-01 6.347672e-02 -2.743808e-01 6.347680e-02 -2.743811e-01 9.037818e-01 1.827117e-01
7.000000e+09 9.055276e-01 1.800091e-01 6.184666e-02 -2.716964e-01 6.184674e-02 -2.716968e-01 9.053493e-01 1.795939e-01
7.035000e+09 9.070674e-01 1.768957e-01 6.024528e-02 -2.690144e-01 6.024536e-02 -2.690148e-01 9.068879e-01 1.764787e-01
7.070000e+09 9.085785e-01 1.737851e-01 5.867227e-02 -2.663349e-01 5.867234e-02 -2.663353e-01 9.083978e-01 1.733663e-01
7.105000e+09 9.100613e-01 1.706775e-01 5.712729e-02 -2.636582e-01 5.712736e-02 -2.636586e-01 9.098793e-01 1.702569e-01
7.140000e+09 9.115161e-01 1.675731e-01 5.561005e-02 -2.609845e-01 5.561012e-02 -2.609849e-01 9.113328e-01 1.671506e-01
7.175000e+09 9.129432e-01 1.644721e-01 5.412021e-02 -2.583140e-01 5.412028e-02 -2.583144e-01 9.127587e-01 1.640478e-01
7.210000e+09 9.143430e-01 1.613747e-01 5.265747e-02 -2.556468e-01 5.265754e-02 -2.556472e-01 9.141572e-01 1.609486e-01
7.245000e+09 9.157159e-01 1.582811e-01 5.122151e-02 -2.529832e-01 5.122158e-02 -2.529835e-01 9.155288e-01 1.578532e-01
7.280000e+09 9.170620e-01 1.551915e-01 4.981202e-02 -2.503232e-01 4.981209e-02 -2.503236e-01 9.168736e-01 1.547618e-01
7.315000e+09 9.183818e-01 1.521060e-01 4.842868e-02 -2.476672e-01 4.842875e-02 -2.476676e-01 9.181921e-01 1.516745e-01
7.350000e+09 9.196755e-01 1.490248e-01 4.707119e-02 -2.450153e-01 4.707126e-02 -2.450157e-01 9.194845e-01 1.485915e-01
7.385000e+09 9.209435e-01 1.459480e-01 4.573923e-02 -2.423676e-01 4.573929e-02 -2.423680e-01 9.207512e-01 1.455129e-01
7.420000e+09 9.221862e-01 1.428759e-01 4.443249e-02 -2.397242e-01 4.443255e-02 -2.397246e-01 9.219925e-01 1.424390e-01
7.455000e+09 9.234038e-01 1.398085e-01 4.315067e-02 -2.370854e-01 4.315073e-02 -2.370858e-01 9.232088e-01 1.393698e-01
7.490000e+09 9.245967e-01 1.367460e-01 4.189345e-02 -2.344512e-01 4.189352e-02 -2.344516e-01 9.244003e-01 1.363055e-01
7.525000e+09 9.257651e-01 1.336885e-01 4.066055e-02 -2.318218e-01 4.066061e-02 -2.318222e-01 9.255674e-01 1.332462e-01
7.560000e+09 9.269094e-01 1.306361e-01 3.945165e-02 -2.291973e-01 3.945171e-02 -2.291977e-01 9.267104e-01 1.301921e-01
7.595000e+09 9.280300e-01 1.275890e-01 3.826645e-02 -2.265778e-01 3.826651e-02 -2.265782e-01 9.278295e-01 1.271432e-01
7.630000e+09 9.291270e-01 1.245472e-01 3.710466e-02 -2.239635e-01 3.710472e-02 -2.239639e-01 9.289252e-01 1.240997e-01
7.665000e+09 9.302009e-01 1.215109e-01 3.596597e-02 -2.213544e-01 3.596604e-02 -2.213548e-01 9.299977e-01 1.210616e-01
7.700000e+09 9.312519e-01 1.184801e-01 3.485011e-02 -2.187507e-01 3.485017e-02 -2.187511e-01 9.310473e-01 1.180291e-01
7.735000e+09 9.322803e-01 1.154550e-01 3.375677e-02 -2.161524e-01 3.375683e-02 -2.161528e-01 9.320743e-01 1.150023e-01
7.770000e+09 9.332865e-01 1.124356e-01 3.268566e-02 -2.135596e-01 3.268572e-02 -2.135600e-01 9.330791e-01 1.119812e-01
7.805000e+09 9.342707e-01 1.094220e-01 3.163650e-02 -2.109725e-01 3.163656e-02 -2.109729e-01 9.340619e-01 1.089658e-01
7.840000e+09 9.352332e-01 1.064142e-01 3.060900e-02 -2.083910e-01 3.060906e-02 -2.083914e-01 9.350230e-01 1.059564e-01
7.875000e+09 9.361743e-01 1.034124e-01 2.960289e-02 -2.058153e-01 2.960295e-02 -2.058157e-01 9.359627e-01 1.029529e-01
7.910000e+09 9.370944e-01 1.004166e-01 2.861788e-02 -2.032454e-01 2.861794e-02 -2.032458e-01 9.368813e-01 9.995537e-02
7.945000e+09 9.379936e-01 9.742682e-02 2.765370e-02 -2.006815e-01 2.765376e-02 -2.006819e-01 9.377791e-01 9.696391e-02
7.980000e+09 9.388723e-01 9.444313e-02 2.671008e-02 -1.981234e-01 2.671014e-02 -1.981238e-01 9.386563e-01 9.397855e-02
8.015000e+09 9.397308e-01 9.146557e-02 2.578674e-02 -1.955714e-01 2.578680e-02 -1.955718e-01 9.395134e-01 9.099932e-02
8.050000e+09 9.405693e-01 8.849418e-02 2.488342e-02 -1.930254e-01 2.488348e-02 -1.930258e-01 9.403504e-01 8.802627e-02
8.085000e+09 9.413881e-01 8.552898e-02 2.399985e-02 -1.904854e-01 2.399991e-02 -1.904858e-01 9.411678e-01 8.505941e-02
8.120000e+09 9.421875e-01 8.257001e-02 2.313578e-02 -1.879516e-01 2.313584e-02 -1.879520e-01 9.419657e-01 8.209878e-02
8.155000e+09 9.429678e-01 7.961727e-02 2.229095e-02 -1.854239e-01 2.229101e-02 -1.854244e-01 9.427444e-01 7.914440e-02
8.190000e+09 9.437291e-01 7.667078e-02 2.146510e-02 -1.829024e-01 2.146516e-02 -1.829028e-01 9.435043e-01 7.619628e-02
8.225000e+09 9.444718e-01 7.373055e-02 2.065799e-02 -1.803871e-01 2.065804e-02 -1.803875e-01 9.442455e-01 7.325442e-02
8.260000e+09 9.451961e-01 7.079659e-02 1.986936e-02 -1.778780e-01 1.986942e-02 -1.778784e-01 9.449683e-01 7.031883e-02
8.295000e+09 9.459023e-01 6.786889e-02 1.909898e-02 -1.753750e-01 1.909903e-02 -1.753755e-01 9.456730e-01 6.738952e-02
8.330000e+09 9.465906e-01 6.494745e-02 1.834660e-02 -1.728783e-01 1.834666e-02 -1.728788e-01 9.463598e-01 6.446647e-02
8.365000e+09 9.472612e-01 6.203226e-02 1.761200e-02 -1.703879e-01 1.761205e-02 -1.703883e-01 9.470289e-01 6.154968e-02
8.400000e+09 9.479145e-01 5.912331e-02 1.689493e-02 -1.679036e-01 1.689499e-02 -1.679040e-01 9.476806e-01 5.863913e-02
8.435000e+09 9.485505e-01 5.622057e-02 1.619518e-02 -1.654255e-01 1.619523e-02 -1.654260e-01 9.483151e-01 5.573481e-02
8.470000e+09 9.491696e-01 5.332402e-02 1.551251e-02 -1.629537e-01 1.551257e-02 -1.629541e-01 9.489327e-01 5.283668e-02
8.505000e+09 9.497720e-01 5.043364e-02 1.484672e-02 -1.604880e-01 1.484677e-02 -1.604885e-01 9.495335e-01 4.994473e-02
8.540000e+09 9.503579e-01 4.754940e-02 1.419757e-02 -1.580285e-01 1.419763e-02 -1.580290e-01 9.501178e-01 4.705891e-02
8.575000e+09 9.509275e-01 4.467125e-02 1.356487e-02 -1.555752e-01 1.356492e-02 -1.555756e-01 9.506859e-01 4.417921e-02
8.610000e+09 9.514810e-01 4.179917e-02 1.294840e-02 -1.531279e-01 1.294846e-02 -1.531284e-01 9.512378e-01 4.130557e-02
8.645000e+09 9.520186e-01 3.893311e-02 1.234797e-02 -1.506868e-01 1.234802e-02 -1.506872e-01 9.517739e-01 3.843796e-02
8.680000e+09 9.525406e-01 3.607302e-02 1.176337e-02 -1.482517e-01 1.176342e-02 -1.482522e-01 9.522943e-01 3.557634e-02
8.715000e+09 9.530471e-01 3.321886e-02 1.119441e-02 -1.458227e-01 1.119446e-02 -1.458231e-01 9.527992e-01 3.272064e-02
8.750000e+09 9.535383e-01 3.037057e-02 1.064090e-02 -1.433996e-01 1.064095e-02 -1.434000e-01 9.532888e-01 2.987082e-02
8.785000e+09 9.540144e-01 2.752810e-02 1.010265e-02 -1.409825e-01 1.010271e-02 -1.409829e-01 9.537634e-01 2.702683e-02
8.820000e+09 9.544756e-01 2.469138e-02 9.579492e-03 -1.385713e-01 9.579544e-03 -1.385717e-01 9.542230e-01 2.418861e-02
8.855000e+09 9.549220e-01 2.186037e-02 9.071239e-03 -1.361659e-01 9.071292e-03 -1.361664e-01 9.546678e-01 2.135609e-02
8.890000e+09 9.553539e-01 1.903499e-02 8.577724e-03 -1.337664e-01 8.577776e-03 -1.337668e-01 9.550981e-01 1.852921e-02
8.925000e+09 9.557714e-01 1.621518e-02 8.098778e-03 -1.313725e-01 8.098831e-03 -1.313730e-01 9.555140e-01 1.570791e-02
8.960000e+09 9.561746e-01 1.340088e-02 7.634240e-03 -1.289844e-01 7.634293e-03 -1.289849e-01 9.559156e-01 1.289211e-02
8.995000e+09 9.565638e-01 1.059200e-02 7.183953e-03 -1.266020e-01 7.184006e-03 -1.266024e-01 9.563031e-01 1.008176e-02
9.030000e+09 9.569390e-01 7.788477e-03 6.747764e-03 -1.242251e-01 6.747817e-03 -1.242255e-01 9.566767e-01 7.276763e-03
9.065000e+09 9.573004e-01 4.990239e-03 6.325525e-03 -1.218537e-01 6.325578e-03 -1.218542e-01 9.570365e-01 4.477059e-03
9.100000e+09 9.576482e-01 2.197207e-03 5.917092e-03 -1.194878e-01 5.917146e-03 -1.194883e-01 9.573827e-01 1.682566e-03
9.135000e+09 9.579825e-01 -5.906985e-04 5.522328e-03 -1.171273e-01 5.522382e-03 -1.171278e-01 9.577153e-01 -1.106792e-03
9.170000e+09 9.583034e-01 -3.373556e-03 5.141099e-03 -1.147721e-01 5.141153e-03 -1.147726e-01 9.580345e-01 -3.891096e-03
9.205000e+09 9.586110e-01 -6.151447e-03 4.773276e-03 -1.124222e-01 4.773331e-03 -1.124227e-01 9.583405e-01 -6.670428e-03
9.240000e+09 9.589055e-01 -8.924455e-03 4.418737e-03 -1.100775e-01 4.418792e-03 -1.100780e-01 9.586333e-01 -9.444869e-03
9.275000e+09 9.591869e-01 -1.169266e-02 4.077361e-03 -1.077379e-01 4.077416e-03 -1.077384e-01 9.589131e-01 -1.221450e-02
9.310000e+09 9.594554e-01 -1.445615e-02 3.749035e-03 -1.054033e-01 3.749091e-03 -1.054038e-01 9.591800e-01 -1.497942e-02
9.345000e+09 9.597111e-01 -1.721502e-02 3.433650e-03 -1.030738e-01 3.433707e-03 -1.030742e-01 9.594340e-01 -1.773969e-02
9.380000e+09 9.599541e-01 -1.996933e-02 3.131103e-03 -1.007491e-01 3.131160e-03 -1.007496e-01 9.596753e-01 -2.049542e-02
9.415000e+09 9.601845e-01 -2.271919e-02 2.841293e-03 -9.842924e-02 2.841350e-03 -9.842971e-02 9.599040e-01 -2.324668e-02
9.450000e+09 9.604023e-01 -2.546468e-02 2.564127e-03 -9.611415e-02 2.564185e-03 -9.611462e-02 9.601202e-01 -2.599356e-02
9.485000e+09 9.606076e-01 -2.820588e-02 2.299515e-03 -9.380374e-02 2.299574e-03 -9.380422e-02 9.603238e-01 -2.873615e-02
9.520000e+09 9.608006e-01 -3.094289e-02 2.047374e-03 -9.149794e-02 2.047433e-03 -9.149842e-02 9.605151e-01 -3.147454e-02
9.555000e+09 9.609812e-01 -3.367579e-02 1.807623e-03 -8.919667e-02 1.807682e-03 -8.919715e-02 9.606941e-01 -3.420882e-02
9.590000e+09 9.611496e-01 -3.640466e-02 1.580188e-03 -8.689985e-02 1.580248e-03 -8.690033e-02 9.608608e-01 -3.693906e-02
9.625000e+09 9.613058e-01 -3.912959e-02 1.365000e-03 -8.460741e-02 1.365061e-03 -8.460790e-02 9.610153e-01 -3.966536e-02
9.660000e+09 9.614499e-01 -4.185068e-02 1.161994e-03 -8.231928e-02 1.162055e-03 -8.231977e-02 9.611576e-01 -4.238780e-02
9.695000e+09 9.615819e-01 -4.456799e-02 9.711091e-04 -8.003538e-02 9.711714e-04 -8.003587e-02 9.612879e-01 -4.510647e-02
9.730000e+09 9.617018e-01 -4.728163e-02 7.922914e-04 -7.775563e-02 7.923544e-04 -7.775612e-02 9.614061e-01 -4.782145e-02
9.765000e+09 9.618097e-01 -4.999166e-02 6.254903e-04 -7.547997e-02 6.255539e-04 -7.548046e-02 9.615123e-01 -5.053282e-02
9.800000e+09 9.619057e-01 -5.269817e-02 4.706601e-04 -7.320831e-02 4.707245e-04 -7.320881e-02 9.616065e-01 -5.324067e-02
9.835000e+09 9.619897e-01 -5.540125e-02 3.277603e-04 -7.094060e-02 3.278254e-04 -7.094110e-02 9.616888e-01 -5.594507e-02
9.870000e+09 9.620617e-01 -5.810097e-02 1.967546e-04 -6.867676e-02 1.968206e-04 -6.867726e-02 9.617591e-01 -5.864611e-02
9.905000e+09 9.621219e-01 -6.079740e-02 7.761181e-05 -6.641671e-02 7.767858e-05 -6.641722e-02 9.618175e-01 -6.134386e-02
9.940000e+09 9.621702e-01 -6.349063e-02 -2.969495e-05 -6.416040e-02 -2.962737e-05 -6.416091e-02 9.618641e-01 -6.403840e-02
9.975000e+09 9.622065e-01 -6.618072e-02 -1.251879e-04 -6.190775e-02 -1.251195e-04 -6.190826e-02 9.618987e-01 -6.672979e-02
1.001000e+10 9.622310e-01 -6.886775e-02 -2.088847e-04 -5.965871e-02 -2.088154e-04 -5.965922e-02 9.619215e-01 -6.941811e-02
1.004500e+10 9.622437e-01 -7.155178e-02 -2.807985e-04 -5.741320e-02 -2.807285e-04 -5.741372e-02 9.619323e-01 -7.210344e-02
1.008000e+10 9.622444e-01 -7.423288e-02 -3.409384e-04 -5.517117e-02 -3.408674e-04 -5.517169e-02 9.619313e-01 -7.478583e-02
1.011500e+10 9.622332e-01 -7.691112e-02 -3.893087e-04 -5.293257e-02 -3.892369e-04 -5.293308e-02 9.619183e-01 -7.746534e-02
1.015000e+10 9.622101e-01 -7.958656e-02 -4.259096e-04 -5.069732e-02 -4.258369e-04 -5.069784e-02 9.618935e-01 -8.014205e-02
1.018500e+10 9.621751e-01 -8.225924e-02 -4.507373e-04 -4.846538e-02 -4.506638e-04 -4.846591e-02 9.618566e-01 -8.281600e-02
1.022000e+10 9.621280e-01 -8.492924e-02 -4.637836e-04 -4.623671e-02 -4.637092e-04 -4.623723e-02 9.618079e-01 -8.548726e-02
1.025500e+10 9.620690e-01 -8.759659e-02 -4.650365e-04 -4.401124e-02 -4.649612e-04 -4.401177e-02 9.617471e-01 -8.815587e-02
1.029000e+10 9.619980e-01 -9.026135e-02 -4.544799e-04 -4.178893e-02 -4.544037e-04 -4.178947e-02 9.616742e-01 -9.082187e-02
1.032500e+10 9.619149e-01 -9.292356e-02 -4.320938e-04 -3.956975e-02 -4.320167e-04 -3.957029e-02 9.615894e-01 -9.348533e-02
1.036000e+10 9.618197e-01 -9.558326e-02 -3.978545e-04 -3.735365e-02 -3.977766e-04 -3.735419e-02 9.614924e-01 -9.614626e-02
1.039500e+10 9.617123e-01 -9.824049e-02 -3.517348e-04 -3.514059e-02 -3.516559e-04 -3.514113e-02 9.613832e-01 -9.880472e-02
1.043000e+10 9.615928e-01 -1.008953e-01 -2.937035e-04 -3.293055e-02 -2.936238e-04 -3.293109e-02 9.612618e-01 -1.014607e-01
1.046500e+10 9.614609e-01 -1.035477e-01 -2.237264e-04 -3.072348e-02 -2.236458e-04 -3.072403e-02 9.611282e-01 -1.041143e-01
1.050000e+10 9.613168e-01 -1.061977e-01 -1.417656e-04 -2.851937e-02 -1.416842e-04 -2.851992e-02 9.609822e-01 -1.067655e-01
1.053500e+10 9.611603e-01 -1.088453e-01 -4.778021e-05 -2.631820e-02 -4.769792e-05 -2.631875e-02 9.608239e-01 -1.094144e-01
1.057000e+10 9.609913e-01 -1.114906e-01 5.827391e-05 -2.411994e-02 5.835703e-05 -2.412050e-02 9.606531e-01 -1.120608e-01
1.060500e+10 9.608099e-01 -1.141335e-01 1.764438e-04 -2.192458e-02 1.765278e-04 -2.192514e-02 9.604698e-01 -1.147049e-01
1.064000e+10 9.606159e-01 -1.167741e-01 3.067795e-04 -1.973212e-02 3.068643e-04 -1.973268e-02 9.602740e-01 -1.173467e-01
1.067500e+10 9.604092e-01 -1.194123e-01 4.493336e-04 -1.754253e-02 4.494192e-04 -1.754310e-02 9.600655e-01 -1.199862e-01
1.071000e+10 9.601898e-01 -1.220482e-01 6.041614e-04 -1.535583e-02 6.042478e-04 -1.535640e-02 9.598442e-01 -1.226232e-01
1.074500e+10 9.599576e-01 -1.246818e-01 7.713206e-04 -1.317202e-02 7.714076e-04 -1.317259e-02 9.596102e-01 -1.252580e-01
1.078000e+10 9.597125e-01 -1.273130e-01 9.508710e-04 -1.099110e-02 9.509588e-04 -1.099168e-02 9.593633e-01 -1.278903e-01
1.081500e+10 9.594545e-01 -1.299418e-01 1.142875e-03 -8.813093e-03 1.142963e-03 -8.813670e-03 9.591034e-01 -1.305203e-01
1.085000e+10 9.591834e-01 -1.325682e-01 1.347396e-03 -6.638006e-03 1.347485e-03 -6.638585e-03 9.588305e-01 -1.331478e-01
1.088500e+10 9.588992e-01 -1.351921e-01 1.564501e-03 -4.465864e-03 1.564590e-03 -4.466447e-03 9.585444e-01 -1.357729e-01
1.092000e+10 9.586018e-01 -1.378136e-01 1.794256e-03 -2.296697e-03 1.794346e-03 -2.297283e-03 9.582451e-01 -1.383955e-01
1.095500e+10 9.582911e-01 -1.404325e-01 2.036731e-03 -1.305350e-04 2.036822e-03 -1.311242e-04 9.579325e-01 -1.410155e-01
1.099000e+10 9.579670e-01 -1.430489e-01 2.291996e-03 2.032583e-03 2.292087e-03 2.031991e-03 9.576065e-01 -1.436330e-01
1.102500e+10 9.576294e-01 -1.456626e-01 2.560122e-03 4.192614e-03 2.560214e-03 4.192019e-03 9.572670e-01 -1.462478e-01
1.106000e+10 9.572782e-01 -1.482736e-01 2.841181e-03 6.349510e-03 2.841274e-03 6.348911e-03 9.569140e-01 -1.488599e-01
1.109500e+10 9.569133e-01 -1.508818e-01 3.135247e-03 8.503216e-03 3.135340e-03 8.502614e-03 9.565472e-01 -1.514692e-01
1.113000e+10 9.565347e-01 -1.534872e-01 3.442392e-03 1.065367e-02 3.442486e-03 1.065307e-02 9.561667e-01 -1.540757e-01
1.116500e+10 9.561423e-01 -1.560897e-01 3.762691e-03 1.280082e-02 3.762785e-03 1.280021e-02 9.557723e-01 -1.566793e-01
1.120000e+10 9.557359e-01 -1.586891e-01 4.096216e-03 1.494457e-02 4.096310e-03 1.494396e-02 9.553640e-01 -1.592798e-01
1.123500e+10 9.553154e-01 -1.612855e-01 4.443042e-03 1.708487e-02 4.443136e-03 1.708425e-02 9.549417e-01 -1.618772e-01
1.127000e+10 9.548809e-01 -1.638786e-01 4.803241e-03 1.922162e-02 4.803336e-03 1.922100e-02 9.545052e-01 -1.644714e-01
1.130500e+10 9.544321e-01 -1.664684e-01 5.176887e-03 2.135473e-02 5.176982e-03 2.135411e-02 9.540545e-01 -1.670622e-01
1.134000e+10 9.539690e-01 -1.690548e-01 5.564051e-03 2.348411e-02 5.564147e-03 2.348349e-02 9.535895e-01 -1.696496e-01
1.137500e+10 9.534915e-01 -1.716376e-01 5.964804e-03 2.560967e-02 5.964899e-03 2.560904e-02 9.531101e-01 -1.722335e-01
1.141000e+10 9.529996e-01 -1.742167e-01 6.379215e-03 2.773129e-02 6.379311e-03 2.773066e-02 9.526162e-01 -1.748136e-01
1.144500e+10 9.524931e-01 -1.767920e-01 6.807352e-03 2.984886e-02 6.807448e-03 2.984823e-02 9.521077e-01 -1.773899e-01
1.148000e+10 9.519719e-01 -1.793633e-01 7.249282e-03 3.196226e-02 7.249377e-03 3.196162e-02 9.515846e-01 -1.799622e-01
1.151500e+10 9.514361e-01 -1.819305e-01 7.705067e-03 3.407137e-02 7.705162e-03 3.407073e-02 9.510468e-01 -1.825304e-01
1.155000e+10 9.508854e-01 -1.844934e-01 8.174770e-03 3.617605e-02 8.174865e-03 3.617541e-02 9.504942e-01 -1.850943e-01
1.158500e+10 9.503199e-01 -1.870519e-01 8.658450e-03 3.827617e-02 8.658544e-03 3.827552e-02 9.499267e-01 -1.876538e-01
1.162000e+10 9.497395e-01 -1.896058e-01 9.156162e-03 4.037158e-02 9.156257e-03 4.037093e-02 9.493443e-01 -1.902086e-01
1.165500e+10 9.491440e-01 -1.921548e-01 9.667961e-03 4.246214e-02 9.668055e-03 4.246149e-02 9.487468e-01 -1.927586e-01
1.169000e+10 9.485335e-01 -1.946990e-01 1.019390e-02 4.454769e-02 1.019399e-02 4.454704e-02 9.481343e-01 -1.953037e-01
1.172500e+10 9.479079e-01 -1.972379e-01 1.073401e-02 4.662806e-02 1.073410e-02 4.662741e-02 9.475067e-01 -1.978436e-01
1.176000e+10 9.472671e-01 -1.997715e-01 1.128835e-02 4.870310e-02 1.128844e-02 4.870244e-02 9.468640e-01 -2.003781e-01
1.179500e+10 9.466112e-01 -2.022995e-01 1.185695e-02 5.077262e-02 1.185704e-02 5.077196e-02 9.462060e-01 -2.029070e-01
1.183000e+10 9.459399e-01 -2.048218e-01 1.243985e-02 5.283645e-02 1.243994e-02 5.283579e-02 9.455327e-01 -2.054302e-01
1.186500e+10 9.452534e-01 -2.073380e-01 1.303707e-02 5.489440e-02 1.303716e-02 5.489374e-02 9.448442e-01 -2.079474e-01
1.190000e+10 9.445516e-01 -2.098481e-01 1.364863e-02 5.694628e-02 1.364872e-02 5.694562e-02 9.441404e-01 -2.104583e-01
1.193500e+10 9.438345e-01 -2.123517e-01 1.427456e-02 5.899190e-02 1.427465e-02 5.899123e-02 9.434212e-01 -2.129628e-01
1.197000e+10 9.431020e-01 -2.148486e-01 1.491486e-02 6.103105e-02 1.491495e-02 6.103038e-02 9.426867e-01 -2.154606e-01
1.200500e+10 9.423541e-01 -2.173386e-01 1.556955e-02 6.306353e-02 1.556964e-02 6.306286e-02 9.419368e-01 -2.179514e-01
1.204000e+10 9.415909e-01 -2.198215e-01 1.623861e-02 6.508912e-02 1.623870e-02 6.508845e-02 9.411715e-01 -2.204351e-01
1.207500e+10 9.408124e-01 -2.222969e-01 1.692205e-02 6.710760e-02 1.692214e-02 6.710693e-02 9.403909e-01 -2.229114e-01
1.211000e+10 9.400185e-01 -2.247646e-01 1.761985e-02 6.911876e-02 1.761994e-02 6.911809e-02 9.395950e-01 -2.253799e-01
1.214500e+10 9.392093e-01 -2.272245e-01 1.833199e-02 7.112237e-02 1.833207e-02 7.112170e-02 9.387838e-01 -2.278406e-01
1.218000e+10 9.383849e-01 -2.296761e-01 1.905844e-02 7.311820e-02 1.905852e-02 7.311752e-02 9.379573e-01 -2.302930e-01
1.221500e+10 9.375452e-01 -2.321192e-01 1.979916e-02 7.510600e-02 1.979924e-02 7.510532e-02 9.371155e-01 -2.327369e-01
1.225000e+10 9.366903e-01 -2.345536e-01 2.055411e-02 7.708554e-02 2.055419e-02 7.708486e-02 9.362586e-01 -2.351721e-01
1.228500e+10 9.358204e-01 -2.369790e-01 2.132323e-02 7.905658e-02 2.132331e-02 7.905590e-02 9.353865e-01 -2.375982e-01
1.232000e+10 9.349354e-01 -2.393950e-01 2.210646e-02 8.101887e-02 2.210654e-02 8.101819e-02 9.344994e-01 -2.400150e-01
1.235500e+10 9.340354e-01 -2.418015e-01 2.290374e-02 8.297215e-02 2.290381e-02 8.297147e-02 9.335974e-01 -2.424222e-01
1.239000e+10 9.331206e-01 -2.441980e-01 2.371497e-02 8.491618e-02 2.371504e-02 8.491550e-02 9.326804e-01 -2.448195e-01
1.242500e+10 9.321910e-01 -2.465844e-01 2.454007e-02 8.685069e-02 2.454014e-02 8.685001e-02 9.317488e-01 -2.472066e-01
1.246000e+10 9.312468e-01 -2.489603e-01 2.537893e-02 8.877543e-02 2.537900e-02 8.877476e-02 9.308024e-01 -2.495832e-01
1.249500e+10 9.302880e-01 -2.513255e-01 2.623146e-02 9.069014e-02 2.623152e-02 9.068947e-02 9.298416e-01 -2.519490e-01
1.253000e+10 9.293149e-01 -2.536795e-01 2.709751e-02 9.259455e-02 2.709758e-02 9.259388e-02 9.288664e-01 -2.543037e-01
1.256500e+10 9.283276e-01 -2.560222e-01 2.797697e-02 9.448840e-02 2.797704e-02 9.448773e-02 9.278769e-01 -2.566471e-01
1.260000e+10 9.273263e-01 -2.583533e-01 2.886969e-02 9.637142e-02 2.886975e-02 9.637075e-02 9.268734e-01 -2.589787e-01
1.263500e+10 9.263110e-01 -2.606723e-01 2.977551e-02 9.824335e-02 2.977557e-02 9.824268e-02 9.258561e-01 -2.612984e-01
1.267000e+10 9.252821e-01 -2.629791e-01 3.069427e-02 1.001039e-01 3.069433e-02 1.001032e-01 9.248250e-01 -2.636058e-01
1.270500e+10 9.242398e-01 -2.652733e-01 3.162579e-02 1.019528e-01 3.162584e-02 1.019522e-01 9.237805e-01 -2.659006e-01
1.274000e+10 9.231841e-01 -2.675547e-01 3.256987e-02 1.037899e-01 3.256992e-02 1.037892e-01 9.227227e-01 -2.681825e-01
1.277500e+10 9.221155e-01 -2.698229e-01 3.352632e-02 1.056148e-01 3.352637e-02 1.056141e-01 9.216520e-01 -2.704513e-01
1.281000e+10 9.210341e-01 -2.720776e-01 3.449491e-02 1.074272e-01 3.449496e-02 1.074266e-01 9.205684e-01 -2.727066e-01
1.284500e+10 9.199403e-01 -2.743186e-01 3.547543e-02 1.092270e-01 3.547547e-02 1.092264e-01 9.194724e-01 -2.749481e-01
1.288000e+10 9.188342e-01 -2.765455e-01 3.646762e-02 1.110138e-01 3.646766e-02 1.110132e-01 9.183641e-01 -2.771756e-01
1.291500e+10 9.177161e-01 -2.787582e-01 3.747123e-02 1.127875e-01 3.747127e-02 1.127868e-01 9.172439e-01 -2.793887e-01
1.295000e+10 9.165865e-01 -2.809562e-01 3.848600e-02 1.145476e-01 3.848604e-02 1.145470e-01 9.161121e-01 -2.815872e-01
1.298500e+10 9.154456e-01 -2.831394e-01 3.951164e-02 1.162941e-01 3.951167e-02 1.162935e-01 9.149691e-01 -2.837709e-01
1.302000e+10 9.142938e-01 -2.853074e-01 4.054785e-02 1.180266e-01 4.054789e-02 1.180260e-01 9.138150e-01 -2.859394e-01
1.305500e+10 9.131313e-01 -2.874601e-01 4.159433e-02 1.197450e-01 4.159437e-02 1.197444e-01 9.126504e-01 -2.880925e-01
1.309000e+10 9.119587e-01 -2.895971e-01 4.265075e-02 1.214489e-01 4.265079e-02 1.214483e-01 9.114756e-01 -2.902299e-01
1.312500e+10 9.107762e-01 -2.917182e-01 4.371678e-02 1.231382e-01 4.371682e-02 1.231376e-01 9.102909e-01 -2.923514e-01
1.316000e+10 9.095843e-01 -2.938232e-01 4.479207e-02 1.248126e-01 4.479210e-02 1.248120e-01 9.090968e-01 -2.944568e-01
1.319500e+10 9.083835e-01 -2.959118e-01 4.587624e-02 1.264720e-01 4.587627e-02 1.264714e-01 9.078938e-01 -2.965458e-01
1.323000e+10 9.071740e-01 -2.979839e-01 4.696892e-02 1.281161e-01 4.696894e-02 1.281155e-01 9.066821e-01 -2.986183e-01
1.326500e+10 9.059565e-01 -3.000393e-01 4.806971e-02 1.297447e-01 4.806973e-02 1.297441e-01 9.054624e-01 -3.006740e-01
1.330000e+10 9.047313e-01 -3.020777e-01 4.917821e-02 1.313577e-01 4.917823e-02 1.313571e-01 9.042350e-01 -3.027127e-01
1.333500e+10 9.034990e-01 -3.040989e-01 5.029399e-02 1.329548e-01 5.029401e-02 1.329542e-01 9.030005e-01 -3.047343e-01
1.337000e+10 9.022600e-01 -3.061029e-01 5.141661e-02 1.345360e-01 5.141664e-02 1.345354e-01 9.017593e-01 -3.067385e-01
1.340500e+10 9.010149e-01 -3.080894e-01 5.254564e-02 1.361010e-01 5.254566e-02 1.361005e-01 9.005120e-01 -3.087254e-01
1.344000e+10 8.997642e-01 -3.100584e-01 5.368059e-02 1.376498e-01 5.368061e-02 1.376493e-01 8.992591e-01 -3.106946e-01
1.347500e+10 8.985084e-01 -3.120097e-01 5.482100e-02 1.391823e-01 5.482102e-02 1.391818e-01 8.980011e-01 -3.126462e-01
1.351000e+10 8.972481e-01 -3.139433e-01 5.596637e-02 1.406982e-01 5.596639e-02 1.406977e-01 8.967386e-01 -3.145800e-01
1.354500e+10 8.959840e-01 -3.158590e-01 5.711620e-02 1.421976e-01 5.711622e-02 1.421971e-01 8.954723e-01 -3.164959e-01
1.358000e+10 8.947165e-01 -3.177568e-01 5.826997e-02 1.436803e-01 5.826999e-02 1.436798e-01 8.942026e-01 -3.183939e-01
1.361500e+10 8.934463e-01 -3.196367e-01 5.942715e-02 1.451463e-01 5.942717e-02 1.451459e-01 8.929302e-01 -3.202739e-01
1.365000e+10 8.921740e-01 -3.214986e-01 6.058719e-02 1.465956e-01 6.058722e-02 1.465952e-01 8.916557e-01 -3.221360e-01
1.368500e+10 8.909002e-01 -3.233425e-01 6.174955e-02 1.480282e-01 6.174958e-02 1.480277e-01 8.903797e-01 -3.239801e-01
1.372000e+10 8.896257e-01 -3.251686e-01 6.291366e-02 1.494440e-01 6.291368e-02 1.494436e-01 8.891030e-01 -3.258063e-01
1.375500e+10 8.883509e-01 -3.269768e-01 6.407893e-02 1.508431e-01 6.407896e-02 1.508426e-01 8.878260e-01 -3.276147e-01
1.379000e+10 8.870767e-01 -3.287672e-01 6.524479e-02 1.522254e-01 6.524482e-02 1.522251e-01 8.865496e-01 -3.294052e-01
1.382500e+10 8.858037e-01 -3.305400e-01 6.641064e-02 1.535912e-01 6.641067e-02 1.535909e-01 8.852744e-01 -3.311781e-01
1.386000e+10 8.845326e-01 -3.322953e-01 6.757586e-02 1.549405e-01 6.757589e-02 1.549402e-01 8.840011e-01 -3.329335e-01
1.389500e+10 8.832641e-01 -3.340333e-01 6.873984e-02 1.562734e-01 6.873988e-02 1.562731e-01 8.827304e-01 -3.346715e-01
1.393000e+10 8.819988e-01 -3.357541e-01 6.990196e-02 1.575900e-01 6.990200e-02 1.575897e-01 8.814630e-01 -3.363923e-01
1.396500e+10 8.807376e-01 -3.374579e-01 7.106159e-02 1.588906e-01 7.106163e-02 1.588903e-01 8.801996e-01 -3.380962e-01
1.400000e+10 8.794811e-01 -3.391452e-01 7.221808e-02 1.601752e-01 7.221813e-02 1.601749e-01 8.789409e-01 -3.397835e-01
