#   Hz   S  RI   R   50
!
0.000000e+00 3.069002e-02 0.000000e+00 9.587498e-01 0.000000e+00 9.587503e-01 0.000000e+00 3.071856e-02 0.000000e+00
3.500000e+07 3.080295e-02 9.641700e-03 9.586293e-01 -1.049732e-02 9.586298e-01 -1.049731e-02 3.083145e-02 9.637370e-03
7.000000e+07 3.114154e-02 1.927566e-02 9.582679e-01 -2.098616e-02 9.582684e-01 -2.098614e-02 3.116992e-02 1.926701e-02
1.050000e+08 3.170522e-02 2.889419e-02 9.576664e-01 -3.145806e-02 9.576669e-01 -3.145804e-02 3.173339e-02 2.888121e-02
1.400000e+08 3.249301e-02 3.848961e-02 9.568257e-01 -4.190465e-02 9.568262e-01 -4.190461e-02 3.252089e-02 3.847233e-02
1.750000e+08 3.350357e-02 4.805435e-02 9.557475e-01 -5.231760e-02 9.557480e-01 -5.231756e-02 3.353108e-02 4.803279e-02
2.100000e+08 3.473517e-02 5.758094e-02 9.544336e-01 -6.268873e-02 9.544341e-01 -6.268868e-02 3.476223e-02 5.755512e-02
2.450000e+08 3.618574e-02 6.706202e-02 9.528863e-01 -7.301000e-02 9.528868e-01 -7.300994e-02 3.621226e-02 6.703196e-02
2.800000e+08 3.785283e-02 7.649040e-02 9.511084e-01 -8.327353e-02 9.511089e-01 -8.327346e-02 3.787875e-02 7.645614e-02
3.150000e+08 3.973368e-02 8.585905e-02 9.491030e-01 -9.347164e-02 9.491035e-01 -9.347156e-02 3.975891e-02 8.582062e-02
3.500000e+08 4.182519e-02 9.516113e-02 9.468734e-01 -1.035969e-01 9.468739e-01 -1.035968e-01 4.184966e-02 9.511857e-02
3.850000e+08 4.412396e-02 1.043900e-01 9.444236e-01 -1.136420e-01 9.444241e-01 -1.136419e-01 4.414760e-02 1.043434e-01
4.200000e+08 4.662629e-02 1.135393e-01 9.417576e-01 -1.236000e-01 9.417580e-01 -1.235999e-01 4.664903e-02 1.134886e-01
4.550000e+08 4.932823e-02 1.226029e-01 9.388798e-01 -1.334642e-01 9.388802e-01 -1.334641e-01 4.935000e-02 1.225482e-01
4.900000e+08 5.222556e-02 1.315748e-01 9.357949e-01 -1.432282e-01 9.357954e-01 -1.432281e-01 5.224629e-02 1.315162e-01
5.250000e+08 5.531384e-02 1.404495e-01 9.325079e-01 -1.528860e-01 9.325084e-01 -1.528859e-01 5.533347e-02 1.403870e-01
5.600000e+08 5.858842e-02 1.492216e-01 9.290239e-01 -1.624317e-01 9.290244e-01 -1.624316e-01 5.860688e-02 1.491553e-01
5.950000e+08 6.204445e-02 1.578860e-01 9.253484e-01 -1.718599e-01 9.253489e-01 -1.718597e-01 6.206170e-02 1.578159e-01
6.300000e+08 6.567694e-02 1.664380e-01 9.214869e-01 -1.811654e-01 9.214873e-01 -1.811653e-01 6.569291e-02 1.663643e-01
6.650000e+08 6.948073e-02 1.748732e-01 9.174451e-01 -1.903435e-01 9.174455e-01 -1.903434e-01 6.949537e-02 1.747958e-01
7.000000e+08 7.345055e-02 1.831873e-01 9.132288e-01 -1.993897e-01 9.132292e-01 -1.993896e-01 7.346381e-02 1.831063e-01
7.350000e+08 7.758102e-02 1.913766e-01 9.088441e-01 -2.082999e-01 9.088445e-01 -2.082998e-01 7.759286e-02 1.912921e-01
7.700000e+08 8.186668e-02 1.994374e-01 9.042970e-01 -2.170704e-01 9.042974e-01 -2.170703e-01 8.187706e-02 1.993495e-01
8.050000e+08 8.630203e-02 2.073666e-01 8.995936e-01 -2.256977e-01 8.995940e-01 -2.256976e-01 8.631089e-02 2.072753e-01
8.400000e+08 9.088150e-02 2.151612e-01 8.947401e-01 -2.341788e-01 8.947405e-01 -2.341786e-01 9.088881e-02 2.150666e-01
8.750000e+08 9.559950e-02 2.228185e-01 8.897426e-01 -2.425108e-01 8.897430e-01 -2.425107e-01 9.560523e-02 2.227207e-01
9.100000e+08 1.004505e-01 2.303361e-01 8.846074e-01 -2.506914e-01 8.846077e-01 -2.506913e-01 1.004546e-01 2.302352e-01
9.450000e+08 1.054288e-01 2.377120e-01 8.793405e-01 -2.587184e-01 8.793409e-01 -2.587183e-01 1.054313e-01 2.376081e-01
9.800000e+08 1.105289e-01 2.449444e-01 8.739481e-01 -2.665901e-01 8.739485e-01 -2.665899e-01 1.105297e-01 2.448375e-01
1.015000e+09 1.157454e-01 2.520317e-01 8.684363e-01 -2.743048e-01 8.684367e-01 -2.743046e-01 1.157445e-01 2.519219e-01
1.050000e+09 1.210728e-01 2.589727e-01 8.628112e-01 -2.818613e-01 8.628115e-01 -2.818611e-01 1.210701e-01 2.588600e-01
1.085000e+09 1.265056e-01 2.657661e-01 8.570785e-01 -2.892587e-01 8.570788e-01 -2.892585e-01 1.265012e-01 2.656507e-01
1.120000e+09 1.320386e-01 2.724114e-01 8.512441e-01 -2.964962e-01 8.512445e-01 -2.964961e-01 1.320325e-01 2.722932e-01
1.155000e+09 1.376665e-01 2.789077e-01 8.453138e-01 -3.035735e-01 8.453142e-01 -3.035733e-01 1.376587e-01 2.787869e-01
1.190000e+09 1.433843e-01 2.852548e-01 8.392932e-01 -3.104902e-01 8.392936e-01 -3.104900e-01 1.433747e-01 2.851315e-01
1.225000e+09 1.491869e-01 2.914524e-01 8.331878e-01 -3.172464e-01 8.331881e-01 -3.172462e-01 1.491755e-01 2.913266e-01
1.260000e+09 1.550695e-01 2.975006e-01 8.270028e-01 -3.238422e-01 8.270032e-01 -3.238420e-01 1.550563e-01 2.973724e-01
1.295000e+09 1.610272e-01 3.033994e-01 8.207436e-01 -3.302780e-01 8.207439e-01 -3.302778e-01 1.610122e-01 3.032689e-01
1.330000e+09 1.670553e-01 3.091493e-01 8.144151e-01 -3.365544e-01 8.144155e-01 -3.365543e-01 1.670386e-01 3.090166e-01
1.365000e+09 1.731494e-01 3.147508e-01 8.080224e-01 -3.426721e-01 8.080228e-01 -3.426720e-01 1.731309e-01 3.146158e-01
1.400000e+09 1.793051e-01 3.202043e-01 8.015702e-01 -3.486321e-01 8.015705e-01 -3.486320e-01 1.792848e-01 3.200672e-01
1.435000e+09 1.855180e-01 3.255107e-01 7.950631e-01 -3.544353e-01 7.950634e-01 -3.544352e-01 1.854959e-01 3.253715e-01
1.470000e+09 1.917841e-01 3.306709e-01 7.885055e-01 -3.600829e-01 7.885059e-01 -3.600828e-01 1.917602e-01 3.305297e-01
1.505000e+09 1.980993e-01 3.356858e-01 7.819019e-01 -3.655761e-01 7.819022e-01 -3.655761e-01 1.980736e-01 3.355426e-01
1.540000e+09 2.044597e-01 3.405565e-01 7.752563e-01 -3.709164e-01 7.752566e-01 -3.709164e-01 2.044323e-01 3.404114e-01
1.575000e+09 2.108617e-01 3.452842e-01 7.685727e-01 -3.761052e-01 7.685730e-01 -3.761052e-01 2.108325e-01 3.451373e-01
1.610000e+09 2.173016e-01 3.498701e-01 7.618550e-01 -3.811441e-01 7.618554e-01 -3.811441e-01 2.172707e-01 3.497213e-01
1.645000e+09 2.237760e-01 3.543155e-01 7.551070e-01 -3.860346e-01 7.551073e-01 -3.860347e-01 2.237433e-01 3.541650e-01
1.680000e+09 2.302814e-01 3.586218e-01 7.483320e-01 -3.907786e-01 7.483323e-01 -3.907787e-01 2.302471e-01 3.584696e-01
1.715000e+09 2.368148e-01 3.627904e-01 7.415336e-01 -3.953777e-01 7.415339e-01 -3.953778e-01 2.367787e-01 3.626366e-01
1.750000e+09 2.433729e-01 3.668229e-01 7.347150e-01 -3.998338e-01 7.347153e-01 -3.998339e-01 2.433352e-01 3.666674e-01
1.785000e+09 2.499529e-01 3.707206e-01 7.278793e-01 -4.041486e-01 7.278796e-01 -4.041488e-01 2.499136e-01 3.705637e-01
1.820000e+09 2.565519e-01 3.744853e-01 7.210296e-01 -4.083241e-01 7.210299e-01 -4.083243e-01 2.565109e-01 3.743268e-01
1.855000e+09 2.631671e-01 3.781184e-01 7.141686e-01 -4.123622e-01 7.141689e-01 -4.123624e-01 2.631245e-01 3.779584e-01
1.890000e+09 2.697959e-01 3.816216e-01 7.072991e-01 -4.162648e-01 7.072993e-01 -4.162650e-01 2.697517e-01 3.814602e-01
1.925000e+09 2.764358e-01 3.849965e-01 7.004236e-01 -4.200337e-01 7.004239e-01 -4.200340e-01 2.763900e-01 3.848337e-01
1.960000e+09 2.830844e-01 3.882447e-01 6.935448e-01 -4.236711e-01 6.935451e-01 -4.236714e-01 2.830371e-01 3.880805e-01
1.995000e+09 2.897394e-01 3.913679e-01 6.866649e-01 -4.271787e-01 6.866651e-01 -4.271791e-01 2.896905e-01 3.912024e-01
2.030000e+09 2.963986e-01 3.943678e-01 6.797862e-01 -4.305586e-01 6.797864e-01 -4.305590e-01 2.963481e-01 3.942010e-01
2.065000e+09 3.030597e-01 3.972460e-01 6.729108e-01 -4.338128e-01 6.729111e-01 -4.338132e-01 3.030078e-01 3.970779e-01
2.100000e+09 3.097209e-01 4.000041e-01 6.660409e-01 -4.369430e-01 6.660412e-01 -4.369436e-01 3.096675e-01 3.998348e-01
2.135000e+09 3.163801e-01 4.026438e-01 6.591784e-01 -4.399514e-01 6.591786e-01 -4.399520e-01 3.163252e-01 4.024733e-01
2.170000e+09 3.230355e-01 4.051669e-01 6.523250e-01 -4.428398e-01 6.523253e-01 -4.428404e-01 3.229792e-01 4.049952e-01
2.205000e+09 3.296854e-01 4.075748e-01 6.454827e-01 -4.456101e-01 6.454829e-01 -4.456108e-01 3.296276e-01 4.074020e-01
2.240000e+09 3.363278e-01 4.098693e-01 6.386531e-01 -4.482642e-01 6.386533e-01 -4.482649e-01 3.362687e-01 4.096953e-01
2.275000e+09 3.429614e-01 4.120519e-01 6.318377e-01 -4.508040e-01 6.318379e-01 -4.508048e-01 3.429009e-01 4.118768e-01
2.310000e+09 3.495844e-01 4.141243e-01 6.250382e-01 -4.532313e-01 6.250384e-01 -4.532321e-01 3.495225e-01 4.139481e-01
2.345000e+09 3.561953e-01 4.160881e-01 6.182560e-01 -4.555479e-01 6.182562e-01 -4.555488e-01 3.561321e-01 4.159108e-01
2.380000e+09 3.627928e-01 4.179448e-01 6.114925e-01 -4.577557e-01 6.114927e-01 -4.577567e-01 3.627283e-01 4.177665e-01
2.415000e+09 3.693754e-01 4.196961e-01 6.047490e-01 -4.598564e-01 6.047492e-01 -4.598575e-01 3.693096e-01 4.195167e-01
2.450000e+09 3.759418e-01 4.213434e-01 5.980268e-01 -4.618518e-01 5.980269e-01 -4.618529e-01 3.758747e-01 4.211629e-01
2.485000e+09 3.824907e-01 4.228883e-01 5.913271e-01 -4.637436e-01 5.913272e-01 -4.637448e-01 3.824224e-01 4.227068e-01
2.520000e+09 3.890209e-01 4.243323e-01 5.846509e-01 -4.655335e-01 5.846510e-01 -4.655348e-01 3.889514e-01 4.241498e-01
2.555000e+09 3.955312e-01 4.256768e-01 5.779995e-01 -4.672233e-01 5.779996e-01 -4.672247e-01 3.954605e-01 4.254934e-01
2.590000e+09 4.020205e-01 4.269235e-01 5.713739e-01 -4.688145e-01 5.713739e-01 -4.688159e-01 4.019486e-01 4.267390e-01
2.625000e+09 4.084877e-01 4.280737e-01 5.647750e-01 -4.703088e-01 5.647750e-01 -4.703103e-01 4.084146e-01 4.278882e-01
2.660000e+09 4.149318e-01 4.291288e-01 5.582038e-01 -4.717078e-01 5.582038e-01 -4.717094e-01 4.148575e-01 4.289424e-01
2.695000e+09 4.213516e-01 4.300904e-01 5.516613e-01 -4.730130e-01 5.516612e-01 -4.730147e-01 4.212763e-01 4.299030e-01
2.730000e+09 4.277464e-01 4.309597e-01 5.451482e-01 -4.742261e-01 5.451481e-01 -4.742279e-01 4.276699e-01 4.307714e-01
2.765000e+09 4.341151e-01 4.317383e-01 5.386655e-01 -4.753486e-01 5.386653e-01 -4.753505e-01 4.340375e-01 4.315490e-01
2.800000e+09 4.404568e-01 4.324274e-01 5.322138e-01 -4.763819e-01 5.322137e-01 -4.763838e-01 4.403782e-01 4.322371e-01
2.835000e+09 4.467707e-01 4.330284e-01 5.257940e-01 -4.773275e-01 5.257938e-01 -4.773296e-01 4.466910e-01 4.328372e-01
2.870000e+09 4.530559e-01 4.335427e-01 5.194069e-01 -4.781869e-01 5.194066e-01 -4.781891e-01 4.529752e-01 4.333505e-01
2.905000e+09 4.593117e-01 4.339716e-01 5.130530e-01 -4.789616e-01 5.130527e-01 -4.789639e-01 4.592299e-01 4.337784e-01
2.940000e+09 4.655372e-01 4.343163e-01 5.067330e-01 -4.796529e-01 5.067327e-01 -4.796553e-01 4.654545e-01 4.341222e-01
2.975000e+09 4.717318e-01 4.345782e-01 5.004476e-01 -4.802622e-01 5.004473e-01 -4.802647e-01 4.716480e-01 4.343832e-01
3.010000e+09 4.778946e-01 4.347585e-01 4.941975e-01 -4.807910e-01 4.941971e-01 -4.807936e-01 4.778098e-01 4.345626e-01
3.045000e+09 4.840250e-01 4.348586e-01 4.879831e-01 -4.812405e-01 4.879826e-01 -4.812432e-01 4.839393e-01 4.346617e-01
3.080000e+09 4.901223e-01 4.348796e-01 4.818051e-01 -4.816120e-01 4.818046e-01 -4.816149e-01 4.900356e-01 4.346817e-01
3.115000e+09 4.961859e-01 4.348228e-01 4.756639e-01 -4.819070e-01 4.756633e-01 -4.819099e-01 4.960983e-01 4.346240e-01
3.150000e+09 5.022151e-01 4.346893e-01 4.695602e-01 -4.821266e-01 4.695595e-01 -4.821297e-01 5.021266e-01 4.344896e-01
3.185000e+09 5.082094e-01 4.344805e-01 4.634943e-01 -4.822722e-01 4.634936e-01 -4.822753e-01 5.081199e-01 4.342798e-01
3.220000e+09 5.141681e-01 4.341975e-01 4.574668e-01 -4.823449e-01 4.574660e-01 -4.823482e-01 5.140777e-01 4.339958e-01
3.255000e+09 5.200907e-01 4.338414e-01 4.514781e-01 -4.823461e-01 4.514773e-01 -4.823495e-01 5.199994e-01 4.336388e-01
3.290000e+09 5.259766e-01 4.334135e-01 4.455287e-01 -4.822770e-01 4.455278e-01 -4.822805e-01 5.258845e-01 4.332100e-01
3.325000e+09 5.318253e-01 4.329149e-01 4.396190e-01 -4.821387e-01 4.396180e-01 -4.821423e-01 5.317323e-01 4.327104e-01
3.360000e+09 5.376363e-01 4.323467e-01 4.337493e-01 -4.819324e-01 4.337482e-01 -4.819362e-01 5.375425e-01 4.321412e-01
3.395000e+09 5.434092e-01 4.317102e-01 4.279201e-01 -4.816594e-01 4.279189e-01 -4.816633e-01 5.433145e-01 4.315037e-01
3.430000e+09 5.491434e-01 4.310063e-01 4.221317e-01 -4.813207e-01 4.221304e-01 -4.813247e-01 5.490479e-01 4.307988e-01
3.465000e+09 5.548385e-01 4.302362e-01 4.163844e-01 -4.809175e-01 4.163831e-01 -4.809217e-01 5.547421e-01 4.300278e-01
3.500000e+09 5.604940e-01 4.294011e-01 4.106787e-01 -4.804510e-01 4.106773e-01 -4.804553e-01 5.603969e-01 4.291917e-01
3.535000e+09 5.661095e-01 4.285019e-01 4.050148e-01 -4.799222e-01 4.050133e-01 -4.799267e-01 5.660116e-01 4.282916e-01
3.570000e+09 5.716847e-01 4.275399e-01 3.993931e-01 -4.793323e-01 3.993915e-01 -4.793369e-01 5.715860e-01 4.273285e-01
3.605000e+09 5.772192e-01 4.265161e-01 3.938138e-01 -4.786823e-01 3.938121e-01 -4.786871e-01 5.771196e-01 4.263037e-01
3.640000e+09 5.827125e-01 4.254315e-01 3.882772e-01 -4.779734e-01 3.882754e-01 -4.779783e-01 5.826121e-01 4.252181e-01
3.675000e+09 5.881642e-01 4.242872e-01 3.827835e-01 -4.772066e-01 3.827816e-01 -4.772116e-01 5.880632e-01 4.240728e-01
3.710000e+09 5.935742e-01 4.230842e-01 3.773331e-01 -4.763829e-01 3.773311e-01 -4.763880e-01 5.934724e-01 4.228688e-01
3.745000e+09 5.989420e-01 4.218236e-01 3.719262e-01 -4.755034e-01 3.719241e-01 -4.755086e-01 5.988394e-01 4.216072e-01
3.780000e+09 6.042673e-01 4.205065e-01 3.665630e-01 -4.745691e-01 3.665607e-01 -4.745745e-01 6.041639e-01 4.202890e-01
3.815000e+09 6.095498e-01 4.191338e-01 3.612436e-01 -4.735810e-01 3.612413e-01 -4.735866e-01 6.094457e-01 4.189153e-01
3.850000e+09 6.147893e-01 4.177066e-01 3.559684e-01 -4.725402e-01 3.559659e-01 -4.725460e-01 6.146844e-01 4.174871e-01
3.885000e+09 6.199854e-01 4.162258e-01 3.507375e-01 -4.714477e-01 3.507349e-01 -4.714536e-01 6.198798e-01 4.160053e-01
3.920000e+09 6.251380e-01 4.146925e-01 3.455511e-01 -4.703044e-01 3.455483e-01 -4.703104e-01 6.250316e-01 4.144709e-01
3.955000e+09 6.302467e-01 4.131077e-01 3.404093e-01 -4.691113e-01 3.404064e-01 -4.691175e-01 6.301396e-01 4.128851e-01
3.990000e+09 6.353113e-01 4.114724e-01 3.353123e-01 -4.678695e-01 3.353092e-01 -4.678758e-01 6.352035e-01 4.112487e-01
4.025000e+09 6.403317e-01 4.097875e-01 3.302602e-01 -4.665798e-01 3.302570e-01 -4.665863e-01 6.402232e-01 4.095627e-01
4.060000e+09 6.453076e-01 4.080540e-01 3.252533e-01 -4.652432e-01 3.252499e-01 -4.652498e-01 6.451983e-01 4.078281e-01
4.095000e+09 6.502388e-01 4.062728e-01 3.202915e-01 -4.638607e-01 3.202880e-01 -4.638674e-01 6.501288e-01 4.060459e-01
4.130000e+09 6.551252e-01 4.044450e-01 3.153750e-01 -4.624331e-01 3.153714e-01 -4.624401e-01 6.550144e-01 4.042171e-01
4.165000e+09 6.599665e-01 4.025715e-01 3.105040e-01 -4.609615e-01 3.105001e-01 -4.609686e-01 6.598551e-01 4.023424e-01
4.200000e+09 6.647627e-01 4.006532e-01 3.056784e-01 -4.594467e-01 3.056744e-01 -4.594540e-01 6.646506e-01 4.004230e-01
4.235000e+09 6.695136e-01 3.986910e-01 3.008984e-01 -4.578897e-01 3.008943e-01 -4.578971e-01 6.694007e-01 3.984598e-01
4.270000e+09 6.742191e-01 3.966859e-01 2.961641e-01 -4.562913e-01 2.961597e-01 -4.562988e-01 6.741055e-01 3.964536e-01
4.305000e+09 6.788790e-01 3.946388e-01 2.914754e-01 -4.546524e-01 2.914709e-01 -4.546601e-01 6.787647e-01 3.944054e-01
4.340000e+09 6.834933e-01 3.925506e-01 2.868325e-01 -4.529740e-01 2.868278e-01 -4.529818e-01 6.833783e-01 3.923161e-01
4.375000e+09 6.880618e-01 3.904223e-01 2.822354e-01 -4.512568e-01 2.822305e-01 -4.512648e-01 6.879461e-01 3.901867e-01
4.410000e+09 6.925846e-01 3.882546e-01 2.776841e-01 -4.495018e-01 2.776790e-01 -4.495100e-01 6.924682e-01 3.880179e-01
4.445000e+09 6.970615e-01 3.860485e-01 2.731786e-01 -4.477098e-01 2.731733e-01 -4.477182e-01 6.969444e-01 3.858107e-01
4.480000e+09 7.014925e-01 3.838049e-01 2.687189e-01 -4.458817e-01 2.687135e-01 -4.458902e-01 7.013746e-01 3.835661e-01
4.515000e+09 7.058775e-01 3.815247e-01 2.643051e-01 -4.440183e-01 2.642994e-01 -4.440270e-01 7.057590e-01 3.812847e-01
4.550000e+09 7.102165e-01 3.792087e-01 2.599371e-01 -4.421204e-01 2.599312e-01 -4.421292e-01 7.100973e-01 3.789676e-01
4.585000e+09 7.145095e-01 3.768578e-01 2.556148e-01 -4.401889e-01 2.556088e-01 -4.401979e-01 7.143896e-01 3.766156e-01
4.620000e+09 7.187566e-01 3.744728e-01 2.513384e-01 -4.382246e-01 2.513321e-01 -4.382337e-01 7.186359e-01 3.742295e-01
4.655000e+09 7.229576e-01 3.720546e-01 2.471076e-01 -4.362282e-01 2.471011e-01 -4.362375e-01 7.228362e-01 3.718101e-01
4.690000e+09 7.271126e-01 3.696040e-01 2.429225e-01 -4.342006e-01 2.429158e-01 -4.342101e-01 7.269905e-01 3.693584e-01
4.725000e+09 7.312216e-01 3.671218e-01 2.387831e-01 -4.321426e-01 2.387761e-01 -4.321523e-01 7.310988e-01 3.668751e-01
4.760000e+09 7.352848e-01 3.646089e-01 2.346891e-01 -4.300550e-01 2.346819e-01 -4.300648e-01 7.351613e-01 3.643610e-01
4.795000e+09 7.393020e-01 3.620660e-01 2.306407e-01 -4.279385e-01 2.306332e-01 -4.279484e-01 7.391778e-01 3.618171e-01
4.830000e+09 7.432734e-01 3.594940e-01 2.266376e-01 -4.257939e-01 2.266299e-01 -4.258040e-01 7.431485e-01 3.592440e-01
4.865000e+09 7.471991e-01 3.568937e-01 2.226797e-01 -4.236219e-01 2.226718e-01 -4.236322e-01 7.470735e-01 3.566425e-01
4.900000e+09 7.510791e-01 3.542658e-01 2.187671e-01 -4.214234e-01 2.187589e-01 -4.214338e-01 7.509528e-01 3.540135e-01
4.935000e+09 7.549136e-01 3.516111e-01 2.148995e-01 -4.191990e-01 2.148911e-01 -4.192095e-01 7.547865e-01 3.513577e-01
4.970000e+09 7.587025e-01 3.489305e-01 2.110769e-01 -4.169494e-01 2.110682e-01 -4.169602e-01 7.585747e-01 3.486759e-01
5.005000e+09 7.624461e-01 3.462245e-01 2.072991e-01 -4.146755e-01 2.072901e-01 -4.146864e-01 7.623176e-01 3.459688e-01
5.040000e+09 7.661444e-01 3.434941e-01 2.035660e-01 -4.123779e-01 2.035567e-01 -4.123889e-01 7.660152e-01 3.432373e-01
5.075000e+09 7.697976e-01 3.407399e-01 1.998774e-01 -4.100572e-01 1.998678e-01 -4.100684e-01 7.696676e-01 3.404819e-01
5.110000e+09 7.734058e-01 3.379627e-01 1.962331e-01 -4.077143e-01 1.962233e-01 -4.077257e-01 7.732751e-01 3.377036e-01
5.145000e+09 7.769692e-01 3.351631e-01 1.926332e-01 -4.053498e-01 1.926231e-01 -4.053613e-01 7.768377e-01 3.349029e-01
5.180000e+09 7.804878e-01 3.323420e-01 1.890772e-01 -4.029644e-01 1.890668e-01 -4.029761e-01 7.803557e-01 3.320807e-01
5.215000e+09 7.839620e-01 3.295000e-01 1.855652e-01 -4.005588e-01 1.855545e-01 -4.005705e-01 7.838291e-01 3.292376e-01
5.250000e+09 7.873917e-01 3.266378e-01 1.820968e-01 -3.981335e-01 1.820859e-01 -3.981454e-01 7.872581e-01 3.263743e-01
5.285000e+09 7.907774e-01 3.237561e-01 1.786720e-01 -3.956893e-01 1.786607e-01 -3.957014e-01 7.906430e-01 3.234914e-01
5.320000e+09 7.941190e-01 3.208556e-01 1.752905e-01 -3.932268e-01 1.752789e-01 -3.932391e-01 7.939839e-01 3.205898e-01
5.355000e+09 7.974168e-01 3.179369e-01 1.719521e-01 -3.907467e-01 1.719402e-01 -3.907591e-01 7.972809e-01 3.176700e-01
5.390000e+09 8.006710e-01 3.150007e-01 1.686567e-01 -3.882495e-01 1.686445e-01 -3.882620e-01 8.005344e-01 3.147327e-01
5.425000e+09 8.038819e-01 3.120477e-01 1.654039e-01 -3.857359e-01 1.653914e-01 -3.857486e-01 8.037445e-01 3.117786e-01
5.460000e+09 8.070495e-01 3.090784e-01 1.621936e-01 -3.832066e-01 1.621808e-01 -3.832193e-01 8.069114e-01 3.088082e-01
5.495000e+09 8.101743e-01 3.060936e-01 1.590256e-01 -3.806620e-01 1.590124e-01 -3.806749e-01 8.100354e-01 3.058223e-01
5.530000e+09 8.132563e-01 3.030938e-01 1.558995e-01 -3.781028e-01 1.558860e-01 -3.781158e-01 8.131167e-01 3.028214e-01
5.565000e+09 8.162959e-01 3.000796e-01 1.528153e-01 -3.755295e-01 1.528014e-01 -3.755427e-01 8.161555e-01 2.998062e-01
5.600000e+09 8.192932e-01 2.970517e-01 1.497726e-01 -3.729428e-01 1.497584e-01 -3.729561e-01 8.191521e-01 2.967772e-01
5.635000e+09 8.222486e-01 2.940106e-01 1.467712e-01 -3.703432e-01 1.467566e-01 -3.703566e-01 8.221067e-01 2.937350e-01
5.670000e+09 8.251622e-01 2.909570e-01 1.438108e-01 -3.677312e-01 1.437959e-01 -3.677448e-01 8.250196e-01 2.906803e-01
5.705000e+09 8.280344e-01 2.878913e-01 1.408912e-01 -3.651074e-01 1.408760e-01 -3.651211e-01 8.278910e-01 2.876136e-01
5.740000e+09 8.308655e-01 2.848142e-01 1.380121e-01 -3.624724e-01 1.379965e-01 -3.624862e-01 8.307212e-01 2.845354e-01
5.775000e+09 8.336556e-01 2.817262e-01 1.351733e-01 -3.598266e-01 1.351573e-01 -3.598405e-01 8.335106e-01 2.814464e-01
5.810000e+09 8.364050e-01 2.786279e-01 1.323744e-01 -3.571705e-01 1.323581e-01 -3.571846e-01 8.362593e-01 2.783469e-01
5.845000e+09 8.391142e-01 2.755197e-01 1.296152e-01 -3.545048e-01 1.295985e-01 -3.545190e-01 8.389676e-01 2.752377e-01
5.880000e+09 8.417832e-01 2.724022e-01 1.268955e-01 -3.518298e-01 1.268784e-01 -3.518441e-01 8.416359e-01 2.721192e-01
5.915000e+09 8.444125e-01 2.692759e-01 1.242148e-01 -3.491461e-01 1.241974e-01 -3.491605e-01 8.442644e-01 2.689918e-01
5.950000e+09 8.470024e-01 2.661413e-01 1.215730e-01 -3.464541e-01 1.215552e-01 -3.464686e-01 8.468534e-01 2.658562e-01
5.985000e+09 8.495530e-01 2.629989e-01 1.189698e-01 -3.437543e-01 1.189515e-01 -3.437690e-01 8.494033e-01 2.627128e-01
6.020000e+09 8.520649e-01 2.598492e-01 1.164048e-01 -3.410472e-01 1.163861e-01 -3.410620e-01 8.519144e-01 2.595621e-01
6.055000e+09 8.545381e-01 2.566927e-01 1.138777e-01 -3.383332e-01 1.138587e-01 -3.383481e-01 8.543868e-01 2.564045e-01
6.090000e+09 8.569732e-01 2.535297e-01 1.113883e-01 -3.356128e-01 1.113689e-01 -3.356278e-01 8.568211e-01 2.532406e-01
6.125000e+09 8.593703e-01 2.503608e-01 1.089363e-01 -3.328864e-01 1.089164e-01 -3.329014e-01 8.592174e-01 2.500707e-01
6.160000e+09 8.617298e-01 2.471864e-01 1.065213e-01 -3.301544e-01 1.065010e-01 -3.301695e-01 8.615761e-01 2.468953e-01
6.195000e+09 8.640521e-01 2.440070e-01 1.041430e-01 -3.274172e-01 1.041223e-01 -3.274325e-01 8.638976e-01 2.437149e-01
6.230000e+09 8.663374e-01 2.408229e-01 1.018011e-01 -3.246753e-01 1.017800e-01 -3.246906e-01 8.661821e-01 2.405299e-01
6.265000e+09 8.685861e-01 2.376346e-01 9.949529e-02 -3.219290e-01 9.947379e-02 -3.219444e-01 8.684300e-01 2.373406e-01
6.300000e+09 8.707985e-01 2.344425e-01 9.722528e-02 -3.191787e-01 9.720336e-02 -3.191943e-01 8.706416e-01 2.341475e-01
6.335000e+09 8.729750e-01 2.312469e-01 9.499073e-02 -3.164248e-01 9.496838e-02 -3.164405e-01 8.728173e-01 2.309509e-01
6.370000e+09 8.751159e-01 2.280482e-01 9.279131e-02 -3.136677e-01 9.276853e-02 -3.136835e-01 8.749573e-01 2.277514e-01
6.405000e+09 8.772214e-01 2.248469e-01 9.062672e-02 -3.109078e-01 9.060350e-02 -3.109236e-01 8.770621e-01 2.245491e-01
6.440000e+09 8.792921e-01 2.216433e-01 8.849661e-02 -3.081453e-01 8.847295e-02 -3.081612e-01 8.791319e-01 2.213445e-01
6.475000e+09 8.813282e-01 2.184377e-01 8.640066e-02 -3.053807e-01 8.637656e-02 -3.053966e-01 8.811672e-01 2.181380e-01
6.510000e+09 8.833300e-01 2.152305e-01 8.433856e-02 -3.026142e-01 8.431400e-02 -3.026302e-01 8.831681e-01 2.149299e-01
6.545000e+09 8.852979e-01 2.120220e-01 8.230996e-02 -2.998462e-01 8.228496e-02 -2.998623e-01 8.851352e-01 2.117205e-01
6.580000e+09 8.872322e-01 2.088125e-01 8.031455e-02 -2.970770e-01 8.028909e-02 -2.970932e-01 8.870687e-01 2.085101e-01
6.615000e+09 8.891333e-01 2.056024e-01 7.835198e-02 -2.943069e-01 7.832606e-02 -2.943232e-01 8.889690e-01 2.052991e-01
6.650000e+09 8.910016e-01 2.023919e-01 7.642195e-02 -2.915363e-01 7.639556e-02 -2.915526e-01 8.908364e-01 2.020878e-01
6.685000e+09 8.928373e-01 1.991814e-01 7.452410e-02 -2.887653e-01 7.449725e-02 -2.887817e-01 8.926713e-01 1.988764e-01
6.720000e+09 8.946408e-01 1.959712e-01 7.265812e-02 -2.859943e-01 7.263080e-02 -2.860107e-01 8.944740e-01 1.956653e-01
6.755000e+09 8.964125e-01 1.927614e-01 7.082367e-02 -2.832236e-01 7.079587e-02 -2.832401e-01 8.962449e-01 1.924547e-01
6.790000e+09 8.981527e-01 1.895525e-01 6.902043e-02 -2.804534e-01 6.899215e-02 -2.804699e-01 8.979843e-01 1.892449e-01
6.825000e+09 8.998618e-01 1.863446e-01 6.724805e-02 -2.776840e-01 6.721930e-02 -2.777006e-01 8.996925e-01 1.860362e-01
6.860000e+09 9.015401e-01 1.831380e-01 6.550623e-02 -2.749157e-01 6.547699e-02 -2.749323e-01 9.013700e-01 1.828288e-01
6.895000e+09 9.031879e-01 1.799330e-01 6.379461e-02 -2.721486e-01 6.376489e-02 -2.721652e-01 9.030170e-01 1.796229e-01
6.930000e+09 9.048056e-01 1.767297e-01 6.211289e-02 -2.693830e-01 6.208267e-02 -2.693996e-01 9.046339e-01 1.764189e-01
6.965000e+09 9.063936e-01 1.735285e-01 6.046073e-02 -2.666191e-01 6.043001e-02 -2.666358e-01 9.062210e-01 1.732168e-01
7.000000e+09 9.079521e-01 1.703295e-01 5.883780e-02 -2.638572e-01 5.880658e-02 -2.638740e-01 9.077787e-01 1.700170e-01
7.035000e+09 9.094816e-01 1.671329e-01 5.724378e-02 -2.610975e-01 5.721206e-02 -2.611142e-01 9.093073e-01 1.668197e-01
7.070000e+09 9.109823e-01 1.639389e-01 5.567834e-02 -2.583401e-01 5.564612e-02 -2.583569e-01 9.108072e-01 1.636250e-01
7.105000e+09 9.124546e-01 1.607478e-01 5.414117e-02 -2.555853e-01 5.410844e-02 -2.556021e-01 9.122787e-01 1.604331e-01
7.140000e+09 9.138989e-01 1.575597e-01 5.263194e-02 -2.528332e-01 5.259870e-02 -2.528500e-01 9.137221e-01 1.572442e-01
7.175000e+09 9.153154e-01 1.543747e-01 5.115034e-02 -2.500841e-01 5.111658e-02 -2.501009e-01 9.151378e-01 1.540585e-01
7.210000e+09 9.167045e-01 1.511932e-01 4.969604e-02 -2.473380e-01 4.966176e-02 -2.473549e-01 9.165260e-01 1.508762e-01
7.245000e+09 9.180666e-01 1.480151e-01 4.826873e-02 -2.445952e-01 4.823393e-02 -2.446121e-01 9.178873e-01 1.476975e-01
7.280000e+09 9.194019e-01 1.448407e-01 4.686809e-02 -2.418559e-01 4.683277e-02 -2.418727e-01 9.192217e-01 1.445224e-01
7.315000e+09 9.207108e-01 1.416701e-01 4.549382e-02 -2.391201e-01 4.545797e-02 -2.391369e-01 9.205298e-01 1.413511e-01
7.350000e+09 9.219936e-01 1.385035e-01 4.414561e-02 -2.363880e-01 4.410923e-02 -2.364048e-01 9.218117e-01 1.381838e-01
7.385000e+09 9.232506e-01 1.353409e-01 4.282315e-02 -2.336598e-01 4.278623e-02 -2.336766e-01 9.230679e-01 1.350206e-01
7.420000e+09 9.244822e-01 1.321826e-01 4.152613e-02 -2.309356e-01 4.148867e-02 -2.309524e-01 9.242987e-01 1.318615e-01
7.455000e+09 9.256886e-01 1.290286e-01 4.025425e-02 -2.282155e-01 4.021626e-02 -2.282322e-01 9.255043e-01 1.287069e-01
7.490000e+09 9.268702e-01 1.258790e-01 3.900722e-02 -2.254996e-01 3.896869e-02 -2.255163e-01 9.266850e-01 1.255566e-01
7.525000e+09 9.280273e-01 1.227339e-01 3.778474e-02 -2.227880e-01 3.774566e-02 -2.228047e-01 9.278413e-01 1.224109e-01
7.560000e+09 9.291601e-01 1.195935e-01 3.658651e-02 -2.200809e-01 3.654688e-02 -2.200976e-01 9.289733e-01 1.192699e-01
7.595000e+09 9.302691e-01 1.164577e-01 3.541225e-02 -2.173783e-01 3.537206e-02 -2.173950e-01 9.300814e-01 1.161335e-01
7.630000e+09 9.313544e-01 1.133268e-01 3.426166e-02 -2.146804e-01 3.422092e-02 -2.146970e-01 9.311659e-01 1.130020e-01
7.665000e+09 9.324164e-01 1.102008e-01 3.313447e-02 -2.119872e-01 3.309317e-02 -2.120038e-01 9.322271e-01 1.098754e-01
7.700000e+09 9.334554e-01 1.070797e-01 3.203039e-02 -2.092988e-01 3.198853e-02 -2.093153e-01 9.332652e-01 1.067537e-01
7.735000e+09 9.344716e-01 1.039636e-01 3.094914e-02 -2.066152e-01 3.090672e-02 -2.066317e-01 9.342806e-01 1.036370e-01
7.770000e+09 9.354654e-01 1.008525e-01 2.989045e-02 -2.039367e-01 2.984747e-02 -2.039531e-01 9.352736e-01 1.005254e-01
7.805000e+09 9.364370e-01 9.774661e-02 2.885406e-02 -2.012631e-01 2.881050e-02 -2.012795e-01 9.362443e-01 9.741894e-02
7.840000e+09 9.373867e-01 9.464586e-02 2.783969e-02 -1.985946e-01 2.779556e-02 -1.986109e-01 9.371932e-01 9.431766e-02
7.875000e+09 9.383147e-01 9.155032e-02 2.684708e-02 -1.959313e-01 2.680238e-02 -1.959475e-01 9.381204e-01 9.122159e-02
7.910000e+09 9.392214e-01 8.846003e-02 2.587597e-02 -1.932731e-01 2.583069e-02 -1.932893e-01 9.390263e-01 8.813077e-02
7.945000e+09 9.401070e-01 8.537501e-02 2.492610e-02 -1.906202e-01 2.488025e-02 -1.906363e-01 9.399111e-01 8.504524e-02
7.980000e+09 9.409717e-01 8.229528e-02 2.399724e-02 -1.879725e-01 2.395080e-02 -1.879885e-01 9.407750e-01 8.196502e-02
8.015000e+09 9.418158e-01 7.922088e-02 2.308912e-02 -1.853301e-01 2.304210e-02 -1.853460e-01 9.416183e-01 7.889013e-02
8.050000e+09 9.426396e-01 7.615182e-02 2.220150e-02 -1.826930e-01 2.215389e-02 -1.827089e-01 9.424413e-01 7.582058e-02
8.085000e+09 9.434433e-01 7.308810e-02 2.133415e-02 -1.800613e-01 2.128595e-02 -1.800771e-01 9.432441e-01 7.275640e-02
8.120000e+09 9.442271e-01 7.002974e-02 2.048682e-02 -1.774350e-01 2.043804e-02 -1.774506e-01 9.440271e-01 6.969758e-02
8.155000e+09 9.449913e-01 6.697673e-02 1.965930e-02 -1.748140e-01 1.960992e-02 -1.748296e-01 9.447905e-01 6.664412e-02
8.190000e+09 9.457361e-01 6.392909e-02 1.885135e-02 -1.721985e-01 1.880138e-02 -1.722140e-01 9.455345e-01 6.359604e-02
8.225000e+09 9.464617e-01 6.088679e-02 1.806275e-02 -1.695884e-01 1.801218e-02 -1.696037e-01 9.462593e-01 6.055331e-02
8.260000e+09 9.471684e-01 5.784984e-02 1.729327e-02 -1.669837e-01 1.724210e-02 -1.669989e-01 9.469652e-01 5.751594e-02
8.295000e+09 9.478563e-01 5.481821e-02 1.654272e-02 -1.643844e-01 1.649095e-02 -1.643995e-01 9.476523e-01 5.448391e-02
8.330000e+09 9.485257e-01 5.179190e-02 1.581088e-02 -1.617906e-01 1.575850e-02 -1.618056e-01 9.483209e-01 5.145720e-02
8.365000e+09 9.491768e-01 4.877088e-02 1.509754e-02 -1.592021e-01 1.504456e-02 -1.592170e-01 9.489712e-01 4.843579e-02
8.400000e+09 9.498097e-01 4.575513e-02 1.440251e-02 -1.566191e-01 1.434892e-02 -1.566339e-01 9.496033e-01 4.541966e-02
8.435000e+09 9.504248e-01 4.274463e-02 1.372559e-02 -1.540415e-01 1.367139e-02 -1.540561e-01 9.502176e-01 4.240879e-02
8.470000e+09 9.510220e-01 3.973934e-02 1.306659e-02 -1.514693e-01 1.301177e-02 -1.514838e-01 9.508141e-01 3.940315e-02
8.505000e+09 9.516018e-01 3.673924e-02 1.242532e-02 -1.489025e-01 1.236989e-02 -1.489168e-01 9.513930e-01 3.640269e-02
8.540000e+09 9.521641e-01 3.374429e-02 1.180160e-02 -1.463410e-01 1.174556e-02 -1.463552e-01 9.519546e-01 3.340740e-02
8.575000e+09 9.527092e-01 3.075445e-02 1.119526e-02 -1.437848e-01 1.113860e-02 -1.437989e-01 9.524989e-01 3.041723e-02
8.610000e+09 9.532374e-01 2.776968e-02 1.060613e-02 -1.412340e-01 1.054884e-02 -1.412479e-01 9.530263e-01 2.743215e-02
8.645000e+09 9.537486e-01 2.478996e-02 1.003403e-02 -1.386884e-01 9.976120e-03 -1.387021e-01 9.535367e-01 2.445211e-02
8.680000e+09 9.542431e-01 2.181522e-02 9.478800e-03 -1.361481e-01 9.420270e-03 -1.361617e-01 9.540305e-01 2.147707e-02
8.715000e+09 9.547211e-01 1.884543e-02 8.940290e-03 -1.336130e-01 8.881135e-03 -1.336264e-01 9.545077e-01 1.850699e-02
8.750000e+09 9.551826e-01 1.588054e-02 8.418344e-03 -1.310831e-01 8.358562e-03 -1.310964e-01 9.549685e-01 1.554182e-02
8.785000e+09 9.556279e-01 1.292051e-02 7.912814e-03 -1.285584e-01 7.852402e-03 -1.285715e-01 9.554130e-01 1.258151e-02
8.820000e+09 9.560571e-01 9.965278e-03 7.423555e-03 -1.260388e-01 7.362513e-03 -1.260517e-01 9.558414e-01 9.626018e-03
8.855000e+09 9.564702e-01 7.014804e-03 6.950430e-03 -1.235243e-01 6.888756e-03 -1.235370e-01 9.562538e-01 6.675290e-03
8.890000e+09 9.568675e-01 4.069036e-03 6.493304e-03 -1.210149e-01 6.430996e-03 -1.210274e-01 9.566503e-01 3.729276e-03
8.925000e+09 9.572490e-01 1.127920e-03 6.052049e-03 -1.185105e-01 5.989106e-03 -1.185227e-01 9.570311e-01 7.879245e-04
8.960000e+09 9.576149e-01 -1.808594e-03 5.626539e-03 -1.160110e-01 5.562959e-03 -1.160231e-01 9.573962e-01 -2.148817e-03
8.995000e+09 9.579652e-01 -4.740560e-03 5.216656e-03 -1.135165e-01 5.152438e-03 -1.135284e-01 9.577458e-01 -5.081001e-03
9.030000e+09 9.583001e-01 -7.668030e-03 4.822283e-03 -1.110269e-01 4.757426e-03 -1.110386e-01 9.580800e-01 -8.008681e-03
9.065000e+09 9.586197e-01 -1.059106e-02 4.443312e-03 -1.085422e-01 4.377813e-03 -1.085536e-01 9.583989e-01 -1.093191e-02
9.100000e+09 9.589241e-01 -1.350970e-02 4.079635e-03 -1.060623e-01 4.013495e-03 -1.060735e-01 9.587025e-01 -1.385074e-02
9.135000e+09 9.592133e-01 -1.642400e-02 3.731152e-03 -1.035871e-01 3.664368e-03 -1.035981e-01 9.589910e-01 -1.676522e-02
9.170000e+09 9.594875e-01 -1.933402e-02 3.397767e-03 -1.011167e-01 3.330338e-03 -1.011274e-01 9.592645e-01 -1.967541e-02
9.205000e+09 9.597467e-01 -2.223980e-02 3.079387e-03 -9.865099e-02 3.011312e-03 -9.866148e-02 9.595230e-01 -2.258137e-02
9.240000e+09 9.599910e-01 -2.514141e-02 2.775924e-03 -9.618992e-02 2.707203e-03 -9.620017e-02 9.597666e-01 -2.548313e-02
9.275000e+09 9.602205e-01 -2.803888e-02 2.487296e-03 -9.373347e-02 2.417927e-03 -9.374347e-02 9.599953e-01 -2.838075e-02
9.310000e+09 9.604352e-01 -3.093228e-02 2.213425e-03 -9.128159e-02 2.143406e-03 -9.129133e-02 9.602093e-01 -3.127428e-02
9.345000e+09 9.606352e-01 -3.382164e-02 1.954234e-03 -8.883424e-02 1.883566e-03 -8.884372e-02 9.604086e-01 -3.416378e-02
9.380000e+09 9.608206e-01 -3.670702e-02 1.709656e-03 -8.639138e-02 1.638336e-03 -8.640060e-02 9.605933e-01 -3.704928e-02
9.415000e+09 9.609913e-01 -3.958846e-02 1.479623e-03 -8.395298e-02 1.407651e-03 -8.396193e-02 9.607634e-01 -3.993084e-02
9.450000e+09 9.611476e-01 -4.246601e-02 1.264075e-03 -8.151899e-02 1.191450e-03 -8.152767e-02 9.609189e-01 -4.280849e-02
9.485000e+09 9.612893e-01 -4.533970e-02 1.062953e-03 -7.908939e-02 9.896744e-04 -7.909779e-02 9.610599e-01 -4.568228e-02
9.520000e+09 9.614165e-01 -4.820959e-02 8.762045e-04 -7.666414e-02 8.022715e-04 -7.667226e-02 9.611865e-01 -4.855225e-02
9.555000e+09 9.615293e-01 -5.107570e-02 7.037799e-04 -7.424320e-02 6.291918e-04 -7.425103e-02 9.612986e-01 -5.141845e-02
9.590000e+09 9.616277e-01 -5.393808e-02 5.456335e-04 -7.182655e-02 4.703896e-04 -7.183408e-02 9.613963e-01 -5.428090e-02
9.625000e+09 9.617118e-01 -5.679676e-02 4.017236e-04 -6.941415e-02 3.258233e-04 -6.942138e-02 9.614797e-01 -5.713964e-02
9.660000e+09 9.617814e-01 -5.965177e-02 2.720122e-04 -6.700597e-02 1.954549e-04 -6.701290e-02 9.615487e-01 -5.999471e-02
9.695000e+09 9.618367e-01 -6.250314e-02 1.564649e-04 -6.460200e-02 7.925005e-05 -6.460862e-02 9.616033e-01 -6.284612e-02
9.730000e+09 9.618777e-01 -6.535090e-02 5.505096e-05 -6.220220e-02 -2.282191e-05 -6.220850e-02 9.616436e-01 -6.569392e-02
9.765000e+09 9.619044e-01 -6.819507e-02 -3.225706e-05 -5.980655e-02 -1.107883e-04 -5.981253e-02 9.616697e-01 -6.853813e-02
9.800000e+09 9.619168e-01 -7.103567e-02 -1.054831e-04 -5.741503e-02 -1.846731e-04 -5.742069e-02 9.616814e-01 -7.137875e-02
9.835000e+09 9.619148e-01 -7.387273e-02 -1.646478e-04 -5.502763e-02 -2.444969e-04 -5.503296e-02 9.616788e-01 -7.421582e-02
9.870000e+09 9.618985e-01 -7.670625e-02 -2.097688e-04 -5.264433e-02 -2.902772e-04 -5.264932e-02 9.616618e-01 -7.704935e-02
9.905000e+09 9.618680e-01 -7.953625e-02 -2.408604e-04 -5.026512e-02 -3.220285e-04 -5.026977e-02 9.616306e-01 -7.987935e-02
9.940000e+09 9.618231e-01 -8.236274e-02 -2.579344e-04 -4.788998e-02 -3.397621e-04 -4.789429e-02 9.615851e-01 -8.270583e-02
9.975000e+09 9.617638e-01 -8.518571e-02 -2.609993e-04 -4.551892e-02 -3.434868e-04 -4.552287e-02 9.615252e-01 -8.552879e-02
1.001000e+10 9.616903e-01 -8.800518e-02 -2.500611e-04 -4.315193e-02 -3.332085e-04 -4.315552e-02 9.614510e-01 -8.834824e-02
1.004500e+10 9.616023e-01 -9.082114e-02 -2.251233e-04 -4.078900e-02 -3.089305e-04 -4.079223e-02 9.613625e-01 -9.116416e-02
1.008000e+10 9.615000e-01 -9.363358e-02 -1.861868e-04 -3.843014e-02 -2.706537e-04 -3.843300e-02 9.612595e-01 -9.397656e-02
1.011500e+10 9.613833e-01 -9.644250e-02 -1.332502e-04 -3.607535e-02 -2.183767e-04 -3.607784e-02 9.611422e-01 -9.678543e-02
1.015000e+10 9.612522e-01 -9.924787e-02 -6.630978e-05 -3.372464e-02 -1.520957e-04 -3.372675e-02 9.610104e-01 -9.959075e-02
1.018500e+10 9.611066e-01 -1.020497e-01 1.464002e-05 -3.137803e-02 -7.180513e-05 -3.137976e-02 9.608643e-01 -1.023925e-01
1.022000e+10 9.609466e-01 -1.048479e-01 1.096068e-04 -2.903553e-02 2.250278e-05 -2.903687e-02 9.607036e-01 -1.051906e-01
1.025500e+10 9.607720e-01 -1.076425e-01 2.186001e-04 -2.669715e-02 1.308375e-04 -2.669810e-02 9.605285e-01 -1.079852e-01
1.029000e+10 9.605830e-01 -1.104335e-01 3.416307e-04 -2.436293e-02 2.532100e-04 -2.436347e-02 9.603388e-01 -1.107761e-01
1.032500e+10 9.603793e-01 -1.132208e-01 4.787114e-04 -2.203288e-02 3.896330e-04 -2.203302e-02 9.601346e-01 -1.135633e-01
1.036000e+10 9.601611e-01 -1.160044e-01 6.298559e-04 -1.970704e-02 5.401204e-04 -1.970676e-02 9.599158e-01 -1.163468e-01
1.039500e+10 9.599283e-01 -1.187842e-01 7.950793e-04 -1.738543e-02 7.046872e-04 -1.738474e-02 9.596824e-01 -1.191265e-01
1.043000e+10 9.596808e-01 -1.215602e-01 9.743977e-04 -1.506811e-02 8.833497e-04 -1.506699e-02 9.594343e-01 -1.219023e-01
1.046500e+10 9.594186e-01 -1.243323e-01 1.167828e-03 -1.275510e-02 1.076125e-03 -1.275356e-02 9.591715e-01 -1.246744e-01
1.050000e+10 9.591417e-01 -1.271006e-01 1.375388e-03 -1.044645e-02 1.283030e-03 -1.044448e-02 9.588940e-01 -1.274424e-01
1.053500e+10 9.588501e-01 -1.298648e-01 1.597095e-03 -8.142220e-03 1.504084e-03 -8.139808e-03 9.586018e-01 -1.302065e-01
1.057000e+10 9.585436e-01 -1.326249e-01 1.832969e-03 -5.842452e-03 1.739306e-03 -5.839597e-03 9.582948e-01 -1.329665e-01
1.060500e+10 9.582223e-01 -1.353810e-01 2.083028e-03 -3.547208e-03 1.988713e-03 -3.543904e-03 9.579729e-01 -1.357224e-01
1.064000e+10 9.578862e-01 -1.381328e-01 2.347291e-03 -1.256548e-03 2.252325e-03 -1.252790e-03 9.576362e-01 -1.384741e-01
1.067500e+10 9.575351e-01 -1.408803e-01 2.625776e-03 1.029462e-03 2.530160e-03 1.033679e-03 9.572846e-01 -1.412214e-01
1.071000e+10 9.571692e-01 -1.436235e-01 2.918502e-03 3.310752e-03 2.822238e-03 3.315434e-03 9.569181e-01 -1.439644e-01
1.074500e+10 9.567882e-01 -1.463622e-01 3.225486e-03 5.587249e-03 3.128575e-03 5.592401e-03 9.565366e-01 -1.467029e-01
1.078000e+10 9.563923e-01 -1.490963e-01 3.546746e-03 7.858874e-03 3.449188e-03 7.864502e-03 9.561401e-01 -1.494368e-01
1.081500e+10 9.559813e-01 -1.518257e-01 3.882297e-03 1.012555e-02 3.784094e-03 1.013165e-02 9.557286e-01 -1.521660e-01
1.085000e+10 9.555553e-01 -1.545503e-01 4.232154e-03 1.238718e-02 4.133308e-03 1.239377e-02 9.553020e-01 -1.548904e-01
1.088500e+10 9.551142e-01 -1.572701e-01 4.596332e-03 1.464368e-02 4.496844e-03 1.465077e-02 9.548604e-01 -1.576099e-01
1.092000e+10 9.546580e-01 -1.599848e-01 4.974842e-03 1.689495e-02 4.874714e-03 1.690254e-02 9.544037e-01 -1.603244e-01
1.095500e+10 9.541867e-01 -1.626945e-01 5.367695e-03 1.914091e-02 5.266928e-03 1.914899e-02 9.539318e-01 -1.630338e-01
1.099000e+10 9.537003e-01 -1.653988e-01 5.774900e-03 2.138143e-02 5.673496e-03 2.139003e-02 9.534449e-01 -1.657379e-01
1.102500e+10 9.531987e-01 -1.680978e-01 6.196463e-03 2.361642e-02 6.094424e-03 2.362553e-02 9.529427e-01 -1.684366e-01
1.106000e+10 9.526819e-01 -1.707912e-01 6.632390e-03 2.584577e-02 6.529716e-03 2.585540e-02 9.524254e-01 -1.711297e-01
1.109500e+10 9.521499e-01 -1.734790e-01 7.082681e-03 2.806936e-02 6.979376e-03 2.807951e-02 9.518930e-01 -1.738172e-01
1.113000e+10 9.516028e-01 -1.761609e-01 7.547336e-03 3.028707e-02 7.443401e-03 3.029775e-02 9.513453e-01 -1.764989e-01
1.116500e+10 9.510405e-01 -1.788369e-01 8.026352e-03 3.249878e-02 7.921789e-03 3.250999e-02 9.507825e-01 -1.791746e-01
1.120000e+10 9.504630e-01 -1.815068e-01 8.519723e-03 3.470437e-02 8.414533e-03 3.471611e-02 9.502045e-01 -1.818441e-01
1.123500e+10 9.498703e-01 -1.841704e-01 9.027437e-03 3.690369e-02 8.921623e-03 3.691598e-02 9.496113e-01 -1.845074e-01
1.127000e+10 9.492624e-01 -1.868275e-01 9.549482e-03 3.909663e-02 9.443046e-03 3.910947e-02 9.490029e-01 -1.871643e-01
1.130500e+10 9.486394e-01 -1.894781e-01 1.008584e-02 4.128304e-02 9.978785e-03 4.129643e-02 9.483794e-01 -1.898145e-01
1.134000e+10 9.480012e-01 -1.921219e-01 1.063649e-02 4.346279e-02 1.052882e-02 4.347674e-02 9.477407e-01 -1.924579e-01
1.137500e+10 9.473479e-01 -1.947588e-01 1.120141e-02 4.563572e-02 1.109312e-02 4.565023e-02 9.470870e-01 -1.950944e-01
1.141000e+10 9.466795e-01 -1.973885e-01 1.178057e-02 4.780169e-02 1.167167e-02 4.781677e-02 9.464181e-01 -1.977238e-01
1.144500e+10 9.459961e-01 -2.000109e-01 1.237394e-02 4.996056e-02 1.226442e-02 4.997621e-02 9.457342e-01 -2.003458e-01
1.148000e+10 9.452977e-01 -2.026259e-01 1.298147e-02 5.211216e-02 1.287135e-02 5.212840e-02 9.450353e-01 -2.029604e-01
1.151500e+10 9.445843e-01 -2.052332e-01 1.360312e-02 5.425635e-02 1.349240e-02 5.427317e-02 9.443215e-01 -2.055673e-01
1.155000e+10 9.438560e-01 -2.078326e-01 1.423885e-02 5.639296e-02 1.412752e-02 5.641037e-02 9.435927e-01 -2.081663e-01
1.158500e+10 9.431129e-01 -2.104240e-01 1.488861e-02 5.852184e-02 1.477668e-02 5.853984e-02 9.428491e-01 -2.107573e-01
1.162000e+10 9.423550e-01 -2.130071e-01 1.555232e-02 6.064283e-02 1.543980e-02 6.066142e-02 9.420908e-01 -2.133400e-01
1.165500e+10 9.415824e-01 -2.155819e-01 1.622994e-02 6.275574e-02 1.611682e-02 6.277494e-02 9.413177e-01 -2.159143e-01
1.169000e+10 9.407951e-01 -2.181479e-01 1.692139e-02 6.486044e-02 1.680767e-02 6.488024e-02 9.405300e-01 -2.184799e-01
1.172500e+10 9.399933e-01 -2.207052e-01 1.762658e-02 6.695673e-02 1.751228e-02 6.697715e-02 9.397278e-01 -2.210367e-01
1.176000e+10 9.391770e-01 -2.232534e-01 1.834545e-02 6.904446e-02 1.823056e-02 6.906549e-02 9.389111e-01 -2.235844e-01
1.179500e+10 9.383464e-01 -2.257924e-01 1.907790e-02 7.112345e-02 1.896243e-02 7.114510e-02 9.380801e-01 -2.261229e-01
1.183000e+10 9.375016e-01 -2.283219e-01 1.982384e-02 7.319352e-02 1.970778e-02 7.321580e-02 9.372348e-01 -2.286519e-01
1.186500e+10 9.366427e-01 -2.308419e-01 2.058317e-02 7.525452e-02 2.046653e-02 7.527743e-02 9.363754e-01 -2.311713e-01
1.190000e+10 9.357697e-01 -2.333519e-01 2.135577e-02 7.730626e-02 2.123856e-02 7.732980e-02 9.355021e-01 -2.336809e-01
1.193500e+10 9.348829e-01 -2.358520e-01 2.214154e-02 7.934857e-02 2.202375e-02 7.937275e-02 9.346149e-01 -2.361804e-01
1.197000e+10 9.339824e-01 -2.383418e-01 2.294034e-02 8.138128e-02 2.282199e-02 8.140610e-02 9.337140e-01 -2.386696e-01
1.200500e+10 9.330683e-01 -2.408211e-01 2.375206e-02 8.340421e-02 2.363313e-02 8.342968e-02 9.327995e-01 -2.411484e-01
1.204000e+10 9.321408e-01 -2.432898e-01 2.457655e-02 8.541719e-02 2.445706e-02 8.544331e-02 9.318716e-01 -2.436165e-01
1.207500e+10 9.312001e-01 -2.457477e-01 2.541367e-02 8.742006e-02 2.529362e-02 8.744683e-02 9.309305e-01 -2.460738e-01
1.211000e+10 9.302463e-01 -2.481945e-01 2.626327e-02 8.941263e-02 2.614266e-02 8.944006e-02 9.299764e-01 -2.485200e-01
1.214500e+10 9.292797e-01 -2.506301e-01 2.712519e-02 9.139474e-02 2.700403e-02 9.142284e-02 9.290093e-01 -2.509550e-01
1.218000e+10 9.283003e-01 -2.530543e-01 2.799926e-02 9.336622e-02 2.787755e-02 9.339499e-02 9.280296e-01 -2.533786e-01
1.221500e+10 9.273085e-01 -2.554669e-01 2.888531e-02 9.532691e-02 2.876305e-02 9.535635e-02 9.270375e-01 -2.557905e-01
1.225000e+10 9.263044e-01 -2.578676e-01 2.978315e-02 9.727665e-02 2.966035e-02 9.730676e-02 9.260331e-01 -2.581906e-01
1.228500e+10 9.252883e-01 -2.602564e-01 3.069260e-02 9.921527e-02 3.056926e-02 9.924606e-02 9.250166e-01 -2.605787e-01
1.232000e+10 9.242604e-01 -2.626330e-01 3.161346e-02 1.011426e-01 3.148958e-02 1.011741e-01 9.239884e-01 -2.629547e-01
1.235500e+10 9.232209e-01 -2.649974e-01 3.254552e-02 1.030586e-01 3.242111e-02 1.030907e-01 9.229486e-01 -2.653183e-01
1.239000e+10 9.221702e-01 -2.673492e-01 3.348856e-02 1.049629e-01 3.336362e-02 1.049958e-01 9.218975e-01 -2.676694e-01
1.242500e+10 9.211083e-01 -2.696884e-01 3.444237e-02 1.068555e-01 3.431690e-02 1.068891e-01 9.208353e-01 -2.700078e-01
1.246000e+10 9.200357e-01 -2.720147e-01 3.540672e-02 1.087363e-01 3.528072e-02 1.087706e-01 9.197624e-01 -2.723335e-01
1.249500e+10 9.189526e-01 -2.743282e-01 3.638136e-02 1.106051e-01 3.625484e-02 1.106401e-01 9.186790e-01 -2.746461e-01
1.253000e+10 9.178592e-01 -2.766285e-01 3.736605e-02 1.124618e-01 3.723901e-02 1.124974e-01 9.175854e-01 -2.769457e-01
1.256500e+10 9.167559e-01 -2.789156e-01 3.836053e-02 1.143062e-01 3.823298e-02 1.143426e-01 9.164819e-01 -2.792320e-01
1.260000e+10 9.156431e-01 -2.811893e-01 3.936455e-02 1.161383e-01 3.923649e-02 1.161753e-01 9.153687e-01 -2.815050e-01
1.263500e+10 9.145209e-01 -2.834496e-01 4.037784e-02 1.179579e-01 4.024927e-02 1.179957e-01 9.142463e-01 -2.837644e-01
1.267000e+10 9.133897e-01 -2.856964e-01 4.140011e-02 1.197649e-01 4.127104e-02 1.198034e-01 9.131149e-01 -2.860103e-01
1.270500e+10 9.122499e-01 -2.879294e-01 4.243109e-02 1.215593e-01 4.230151e-02 1.215985e-01 9.119749e-01 -2.882426e-01
1.274000e+10 9.111018e-01 -2.901487e-01 4.347048e-02 1.233409e-01 4.334040e-02 1.233808e-01 9.108266e-01 -2.904610e-01
1.277500e+10 9.099458e-01 -2.923542e-01 4.451798e-02 1.251096e-01 4.438741e-02 1.251503e-01 9.096703e-01 -2.926656e-01
1.281000e+10 9.087821e-01 -2.945458e-01 4.557328e-02 1.268655e-01 4.544222e-02 1.269069e-01 9.085065e-01 -2.948563e-01
1.284500e+10 9.076113e-01 -2.967235e-01 4.663608e-02 1.286084e-01 4.650453e-02 1.286506e-01 9.073354e-01 -2.970331e-01
1.288000e+10 9.064335e-01 -2.988871e-01 4.770605e-02 1.303384e-01 4.757402e-02 1.303812e-01 9.061575e-01 -2.991958e-01
1.291500e+10 9.052493e-01 -3.010368e-01 4.878287e-02 1.320552e-01 4.865035e-02 1.320988e-01 9.049732e-01 -3.013445e-01
1.295000e+10 9.040590e-01 -3.031724e-01 4.986620e-02 1.337590e-01 4.973321e-02 1.338034e-01 9.037827e-01 -3.034792e-01
1.298500e+10 9.028629e-01 -3.052941e-01 5.095572e-02 1.354497e-01 5.082224e-02 1.354948e-01 9.025866e-01 -3.055999e-01
1.302000e+10 9.016616e-01 -3.074017e-01 5.205106e-02 1.371273e-01 5.191712e-02 1.371732e-01 9.013851e-01 -3.077065e-01
1.305500e+10 9.004554e-01 -3.094953e-01 5.315189e-02 1.387918e-01 5.301748e-02 1.388384e-01 9.001788e-01 -3.097992e-01
1.309000e+10 8.992446e-01 -3.115751e-01 5.425785e-02 1.404433e-01 5.412297e-02 1.404907e-01 8.989680e-01 -3.118779e-01
1.312500e+10 8.980298e-01 -3.136410e-01 5.536859e-02 1.420817e-01 5.523325e-02 1.421299e-01 8.977531e-01 -3.139428e-01
1.316000e+10 8.968114e-01 -3.156931e-01 5.648374e-02 1.437072e-01 5.634793e-02 1.437561e-01 8.965346e-01 -3.159938e-01
1.319500e+10 8.955897e-01 -3.177315e-01 5.760293e-02 1.453197e-01 5.746667e-02 1.453694e-01 8.953128e-01 -3.180312e-01
1.323000e+10 8.943651e-01 -3.197563e-01 5.872581e-02 1.469194e-01 5.858909e-02 1.469698e-01 8.940883e-01 -3.200550e-01
1.326500e+10 8.931382e-01 -3.217678e-01 5.985199e-02 1.485063e-01 5.971482e-02 1.485575e-01 8.928614e-01 -3.220653e-01
1.330000e+10 8.919093e-01 -3.237659e-01 6.098110e-02 1.500806e-01 6.084348e-02 1.501326e-01 8.916325e-01 -3.240624e-01
1.333500e+10 8.906789e-01 -3.257510e-01 6.211278e-02 1.516424e-01 6.197471e-02 1.516951e-01 8.904021e-01 -3.260463e-01
1.337000e+10 8.894474e-01 -3.277231e-01 6.324664e-02 1.531918e-01 6.310812e-02 1.532453e-01 8.891707e-01 -3.280173e-01
1.340500e+10 8.882152e-01 -3.296826e-01 6.438230e-02 1.547290e-01 6.424335e-02 1.547833e-01 8.879385e-01 -3.299756e-01
1.344000e+10 8.869828e-01 -3.316296e-01 6.551940e-02 1.562541e-01 6.538000e-02 1.563092e-01 8.867062e-01 -3.319214e-01
1.347500e+10 8.857506e-01 -3.335644e-01 6.665755e-02 1.577674e-01 6.651772e-02 1.578233e-01 8.854741e-01 -3.338551e-01
1.351000e+10 8.845189e-01 -3.354872e-01 6.779638e-02 1.592691e-01 6.765612e-02 1.593257e-01 8.842426e-01 -3.357767e-01
1.354500e+10 8.832884e-01 -3.373985e-01 6.893553e-02 1.607593e-01 6.879483e-02 1.608167e-01 8.830121e-01 -3.376867e-01
1.358000e+10 8.820592e-01 -3.392984e-01 7.007462e-02 1.622384e-01 6.993350e-02 1.622966e-01 8.817832e-01 -3.395855e-01
1.361500e+10 8.808319e-01 -3.411873e-01 7.121329e-02 1.637065e-01 7.107174e-02 1.637655e-01 8.805561e-01 -3.414732e-01
1.365000e+10 8.796069e-01 -3.430657e-01 7.235118e-02 1.651641e-01 7.220920e-02 1.652239e-01 8.793313e-01 -3.433503e-01
1.368500e+10 8.783846e-01 -3.449339e-01 7.348794e-02 1.666113e-01 7.334554e-02 1.666719e-01 8.781092e-01 -3.452172e-01
1.372000e+10 8.771653e-01 -3.467923e-01 7.462322e-02 1.680486e-01 7.448040e-02 1.681100e-01 8.768901e-01 -3.470743e-01
1.375500e+10 8.759494e-01 -3.486413e-01 7.575668e-02 1.694762e-01 7.561344e-02 1.695384e-01 8.756745e-01 -3.489221e-01
1.379000e+10 8.747374e-01 -3.504814e-01 7.688798e-02 1.708945e-01 7.674432e-02 1.709576e-01 8.744628e-01 -3.507609e-01
1.382500e+10 8.735295e-01 -3.523132e-01 7.801681e-02 1.723040e-01 7.787274e-02 1.723679e-01 8.732552e-01 -3.525914e-01
1.386000e+10 8.723261e-01 -3.541371e-01 7.914286e-02 1.737050e-01 7.899837e-02 1.737697e-01 8.720521e-01 -3.544139e-01
1.389500e+10 8.711275e-01 -3.559536e-01 8.026581e-02 1.750979e-01 8.012092e-02 1.751634e-01 8.708540e-01 -3.562291e-01
1.393000e+10 8.699341e-01 -3.577633e-01 8.138540e-02 1.764833e-01 8.124010e-02 1.765496e-01 8.696609e-01 -3.580375e-01
1.396500e+10 8.687461e-01 -3.595668e-01 8.250133e-02 1.778615e-01 8.235562e-02 1.779286e-01 8.684734e-01 -3.598397e-01
1.400000e+10 8.675639e-01 -3.613647e-01 8.361335e-02 1.792330e-01 8.346724e-02 1.793010e-01 8.672916e-01 -3.616363e-01
