#   Hz   S  RI   R   50
!
0.000000e+00 2.925234e-02 0.000000e+00 9.557313e-01 0.000000e+00 9.557308e-01 0.000000e+00 2.925964e-02 0.000000e+00
5.000000e+07 2.946701e-02 1.367841e-02 9.555113e-01 -1.459315e-02 9.555108e-01 -1.459315e-02 2.947428e-02 1.367447e-02
1.000000e+08 3.011048e-02 2.733876e-02 9.548518e-01 -2.916774e-02 9.548514e-01 -2.916774e-02 3.011769e-02 2.733089e-02
1.500000e+08 3.118125e-02 4.096306e-02 9.537544e-01 -4.370530e-02 9.537539e-01 -4.370530e-02 3.118834e-02 4.095125e-02
2.000000e+08 3.267678e-02 5.453345e-02 9.522216e-01 -5.818749e-02 9.522212e-01 -5.818750e-02 3.268371e-02 5.451772e-02
2.500000e+08 3.459355e-02 6.803231e-02 9.502572e-01 -7.259622e-02 9.502568e-01 -7.259622e-02 3.460029e-02 6.801266e-02
3.000000e+08 3.692709e-02 8.144228e-02 9.478657e-01 -8.691364e-02 9.478653e-01 -8.691364e-02 3.693358e-02 8.141872e-02
3.500000e+08 3.967196e-02 9.474635e-02 9.450527e-01 -1.011223e-01 9.450523e-01 -1.011223e-01 3.967816e-02 9.471890e-02
4.000000e+08 4.282183e-02 1.079279e-01 9.418247e-01 -1.152052e-01 9.418243e-01 -1.152052e-01 4.282769e-02 1.078966e-01
4.500000e+08 4.636948e-02 1.209709e-01 9.381891e-01 -1.291457e-01 9.381888e-01 -1.291457e-01 4.637497e-02 1.209357e-01
5.000000e+08 5.030687e-02 1.338597e-01 9.341543e-01 -1.429278e-01 9.341539e-01 -1.429278e-01 5.031195e-02 1.338206e-01
5.500000e+08 5.462518e-02 1.465792e-01 9.297292e-01 -1.565361e-01 9.297288e-01 -1.565361e-01 5.462980e-02 1.465364e-01
6.000000e+08 5.931483e-02 1.591152e-01 9.249237e-01 -1.699559e-01 9.249234e-01 -1.699559e-01 5.931896e-02 1.590685e-01
6.500000e+08 6.436559e-02 1.714537e-01 9.197484e-01 -1.831730e-01 9.197481e-01 -1.831730e-01 6.436919e-02 1.714033e-01
7.000000e+08 6.976656e-02 1.835819e-01 9.142145e-01 -1.961742e-01 9.142141e-01 -1.961742e-01 6.976959e-02 1.835277e-01
7.500000e+08 7.550631e-02 1.954875e-01 9.083337e-01 -2.089467e-01 9.083333e-01 -2.089467e-01 7.550873e-02 1.954296e-01
8.000000e+08 8.157286e-02 2.071589e-01 9.021183e-01 -2.214787e-01 9.021179e-01 -2.214788e-01 8.157464e-02 2.070973e-01
8.500000e+08 8.795379e-02 2.185855e-01 8.955811e-01 -2.337594e-01 8.955808e-01 -2.337594e-01 8.795491e-02 2.185201e-01
9.000000e+08 9.463630e-02 2.297572e-01 8.887352e-01 -2.457784e-01 8.887350e-01 -2.457785e-01 9.463671e-02 2.296882e-01
9.500000e+08 1.016072e-01 2.406649e-01 8.815943e-01 -2.575265e-01 8.815940e-01 -2.575266e-01 1.016069e-01 2.405924e-01
1.000000e+09 1.088532e-01 2.513005e-01 8.741721e-01 -2.689952e-01 8.741718e-01 -2.689952e-01 1.088521e-01 2.512243e-01
1.050000e+09 1.163605e-01 2.616563e-01 8.664826e-01 -2.801768e-01 8.664823e-01 -2.801768e-01 1.163586e-01 2.615766e-01
1.100000e+09 1.241154e-01 2.717258e-01 8.585399e-01 -2.910645e-01 8.585397e-01 -2.910645e-01 1.241127e-01 2.716426e-01
1.150000e+09 1.321039e-01 2.815031e-01 8.503585e-01 -3.016523e-01 8.503582e-01 -3.016523e-01 1.321004e-01 2.814165e-01
1.200000e+09 1.403122e-01 2.909832e-01 8.419525e-01 -3.119351e-01 8.419523e-01 -3.119352e-01 1.403078e-01 2.908931e-01
1.250000e+09 1.487263e-01 3.001619e-01 8.333364e-01 -3.219086e-01 8.333362e-01 -3.219086e-01 1.487210e-01 3.000683e-01
1.300000e+09 1.573324e-01 3.090355e-01 8.245244e-01 -3.315692e-01 8.245242e-01 -3.315693e-01 1.573261e-01 3.089386e-01
1.350000e+09 1.661165e-01 3.176015e-01 8.155306e-01 -3.409142e-01 8.155305e-01 -3.409142e-01 1.661094e-01 3.175013e-01
1.400000e+09 1.750651e-01 3.258578e-01 8.063692e-01 -3.499414e-01 8.063691e-01 -3.499415e-01 1.750570e-01 3.257542e-01
1.450000e+09 1.841648e-01 3.338030e-01 7.970539e-01 -3.586496e-01 7.970538e-01 -3.586497e-01 1.841557e-01 3.336961e-01
1.500000e+09 1.934022e-01 3.414365e-01 7.875984e-01 -3.670382e-01 7.875983e-01 -3.670382e-01 1.933921e-01 3.413264e-01
1.550000e+09 2.027643e-01 3.487582e-01 7.780160e-01 -3.751070e-01 7.780159e-01 -3.751071e-01 2.027533e-01 3.486449e-01
1.600000e+09 2.122385e-01 3.557688e-01 7.683197e-01 -3.828569e-01 7.683196e-01 -3.828570e-01 2.122265e-01 3.556524e-01
1.650000e+09 2.218124e-01 3.624694e-01 7.585224e-01 -3.902889e-01 7.585223e-01 -3.902890e-01 2.217993e-01 3.623498e-01
1.700000e+09 2.314738e-01 3.688616e-01 7.486363e-01 -3.974049e-01 7.486362e-01 -3.974050e-01 2.314597e-01 3.687389e-01
1.750000e+09 2.412111e-01 3.749477e-01 7.386736e-01 -4.042072e-01 7.386735e-01 -4.042072e-01 2.411960e-01 3.748219e-01
1.800000e+09 2.510130e-01 3.807302e-01 7.286459e-01 -4.106984e-01 7.286458e-01 -4.106985e-01 2.509967e-01 3.806014e-01
1.850000e+09 2.608683e-01 3.862123e-01 7.185644e-01 -4.168818e-01 7.185644e-01 -4.168819e-01 2.608510e-01 3.860805e-01
1.900000e+09 2.707666e-01 3.913974e-01 7.084400e-01 -4.227610e-01 7.084400e-01 -4.227611e-01 2.707483e-01 3.912626e-01
1.950000e+09 2.806978e-01 3.962894e-01 6.982831e-01 -4.283400e-01 6.982831e-01 -4.283401e-01 2.806784e-01 3.961516e-01
2.000000e+09 2.906521e-01 4.008924e-01 6.881037e-01 -4.336231e-01 6.881037e-01 -4.336233e-01 2.906316e-01 4.007517e-01
2.050000e+09 3.006201e-01 4.052109e-01 6.779113e-01 -4.386150e-01 6.779114e-01 -4.386152e-01 3.005985e-01 4.050673e-01
2.100000e+09 3.105930e-01 4.092497e-01 6.677152e-01 -4.433206e-01 6.677152e-01 -4.433207e-01 3.105703e-01 4.091032e-01
2.150000e+09 3.205622e-01 4.130136e-01 6.575239e-01 -4.477449e-01 6.575240e-01 -4.477451e-01 3.205385e-01 4.128643e-01
2.200000e+09 3.305198e-01 4.165080e-01 6.473458e-01 -4.518935e-01 6.473459e-01 -4.518936e-01 3.304950e-01 4.163558e-01
2.250000e+09 3.404581e-01 4.197381e-01 6.371887e-01 -4.557717e-01 6.371888e-01 -4.557718e-01 3.404321e-01 4.195831e-01
2.300000e+09 3.503697e-01 4.227094e-01 6.270600e-01 -4.593854e-01 6.270601e-01 -4.593855e-01 3.503427e-01 4.225517e-01
2.350000e+09 3.602480e-01 4.254277e-01 6.169667e-01 -4.627403e-01 6.169667e-01 -4.627405e-01 3.602199e-01 4.252672e-01
2.400000e+09 3.700864e-01 4.278986e-01 6.069153e-01 -4.658425e-01 6.069154e-01 -4.658427e-01 3.700572e-01 4.277354e-01
2.450000e+09 3.798790e-01 4.301280e-01 5.969121e-01 -4.686979e-01 5.969122e-01 -4.686981e-01 3.798486e-01 4.299621e-01
2.500000e+09 3.896199e-01 4.321217e-01 5.869629e-01 -4.713126e-01 5.869630e-01 -4.713128e-01 3.895885e-01 4.319532e-01
2.550000e+09 3.993041e-01 4.338858e-01 5.770731e-01 -4.736928e-01 5.770732e-01 -4.736930e-01 3.992716e-01 4.337146e-01
2.600000e+09 4.089264e-01 4.354261e-01 5.672476e-01 -4.758447e-01 5.672478e-01 -4.758448e-01 4.088928e-01 4.352523e-01
2.650000e+09 4.184824e-01 4.367487e-01 5.574913e-01 -4.777743e-01 5.574915e-01 -4.777744e-01 4.184477e-01 4.365722e-01
2.700000e+09 4.279677e-01 4.378595e-01 5.478085e-01 -4.794878e-01 5.478086e-01 -4.794880e-01 4.279319e-01 4.376803e-01
2.750000e+09 4.373784e-01 4.387643e-01 5.382031e-01 -4.809914e-01 5.382032e-01 -4.809916e-01 4.373415e-01 4.385826e-01
2.800000e+09 4.467109e-01 4.394692e-01 5.286788e-01 -4.822912e-01 5.286790e-01 -4.822914e-01 4.466729e-01 4.392849e-01
2.850000e+09 4.559618e-01 4.399800e-01 5.192392e-01 -4.833932e-01 5.192393e-01 -4.833934e-01 4.559228e-01 4.397931e-01
2.900000e+09 4.651282e-01 4.403024e-01 5.098871e-01 -4.843033e-01 5.098873e-01 -4.843035e-01 4.650880e-01 4.401129e-01
2.950000e+09 4.742071e-01 4.404422e-01 5.006255e-01 -4.850275e-01 5.006257e-01 -4.850278e-01 4.741659e-01 4.402502e-01
3.000000e+09 4.831962e-01 4.404050e-01 4.914570e-01 -4.855717e-01 4.914571e-01 -4.855719e-01 4.831539e-01 4.402104e-01
3.050000e+09 4.920932e-01 4.401964e-01 4.823837e-01 -4.859415e-01 4.823839e-01 -4.859417e-01 4.920498e-01 4.399993e-01
3.100000e+09 5.008960e-01 4.398218e-01 4.734077e-01 -4.861425e-01 4.734079e-01 -4.861428e-01 5.008515e-01 4.396222e-01
3.150000e+09 5.096028e-01 4.392866e-01 4.645309e-01 -4.861805e-01 4.645311e-01 -4.861807e-01 5.095572e-01 4.390846e-01
3.200000e+09 5.182119e-01 4.385962e-01 4.557549e-01 -4.860606e-01 4.557551e-01 -4.860609e-01 5.181653e-01 4.383916e-01
3.250000e+09 5.267221e-01 4.377556e-01 4.470810e-01 -4.857884e-01 4.470812e-01 -4.857887e-01 5.266745e-01 4.375485e-01
3.300000e+09 5.351322e-01 4.367699e-01 4.385105e-01 -4.853690e-01 4.385107e-01 -4.853693e-01 5.350834e-01 4.365604e-01
3.350000e+09 5.434409e-01 4.356441e-01 4.300444e-01 -4.848075e-01 4.300446e-01 -4.848078e-01 5.433911e-01 4.354321e-01
3.400000e+09 5.516476e-01 4.343830e-01 4.216835e-01 -4.841089e-01 4.216837e-01 -4.841092e-01 5.515967e-01 4.341685e-01
3.450000e+09 5.597515e-01 4.329913e-01 4.134286e-01 -4.832781e-01 4.134288e-01 -4.832783e-01 5.596995e-01 4.327743e-01
3.500000e+09 5.677519e-01 4.314735e-01 4.052801e-01 -4.823197e-01 4.052803e-01 -4.823200e-01 5.676989e-01 4.312541e-01
3.550000e+09 5.756486e-01 4.298342e-01 3.972384e-01 -4.812384e-01 3.972386e-01 -4.812387e-01 5.755945e-01 4.296123e-01
3.600000e+09 5.834412e-01 4.280778e-01 3.893039e-01 -4.800387e-01 3.893041e-01 -4.800390e-01 5.833860e-01 4.278534e-01
3.650000e+09 5.911295e-01 4.262084e-01 3.814766e-01 -4.787249e-01 3.814769e-01 -4.787252e-01 5.910733e-01 4.259815e-01
3.700000e+09 5.987135e-01 4.242301e-01 3.737567e-01 -4.773013e-01 3.737569e-01 -4.773016e-01 5.986562e-01 4.240008e-01
3.750000e+09 6.061931e-01 4.221471e-01 3.661439e-01 -4.757720e-01 3.661441e-01 -4.757723e-01 6.061348e-01 4.219153e-01
3.800000e+09 6.135686e-01 4.199631e-01 3.586382e-01 -4.741410e-01 3.586384e-01 -4.741413e-01 6.135092e-01 4.197289e-01
3.850000e+09 6.208402e-01 4.176819e-01 3.512392e-01 -4.724122e-01 3.512395e-01 -4.724125e-01 6.207796e-01 4.174452e-01
3.900000e+09 6.280080e-01 4.153072e-01 3.439467e-01 -4.705893e-01 3.439469e-01 -4.705896e-01 6.279464e-01 4.150681e-01
3.950000e+09 6.350726e-01 4.128426e-01 3.367601e-01 -4.686760e-01 3.367603e-01 -4.686763e-01 6.350100e-01 4.126010e-01
4.000000e+09 6.420344e-01 4.102914e-01 3.296790e-01 -4.666758e-01 3.296793e-01 -4.666760e-01 6.419707e-01 4.100473e-01
4.050000e+09 6.488939e-01 4.076570e-01 3.227029e-01 -4.645921e-01 3.227031e-01 -4.645924e-01 6.488291e-01 4.074105e-01
4.100000e+09 6.556516e-01 4.049426e-01 3.158310e-01 -4.624282e-01 3.158312e-01 -4.624285e-01 6.555857e-01 4.046936e-01
4.150000e+09 6.623082e-01 4.021513e-01 3.090627e-01 -4.601874e-01 3.090630e-01 -4.601877e-01 6.622412e-01 4.018998e-01
4.200000e+09 6.688643e-01 3.992861e-01 3.023973e-01 -4.578727e-01 3.023976e-01 -4.578730e-01 6.687962e-01 3.990322e-01
4.250000e+09 6.753206e-01 3.963499e-01 2.958341e-01 -4.554871e-01 2.958343e-01 -4.554875e-01 6.752515e-01 3.960936e-01
4.300000e+09 6.816780e-01 3.933457e-01 2.893721e-01 -4.530336e-01 2.893724e-01 -4.530339e-01 6.816078e-01 3.930868e-01
4.350000e+09 6.879372e-01 3.902759e-01 2.830106e-01 -4.505148e-01 2.830109e-01 -4.505151e-01 6.878658e-01 3.900147e-01
4.400000e+09 6.940990e-01 3.871434e-01 2.767487e-01 -4.479335e-01 2.767489e-01 -4.479338e-01 6.940265e-01 3.868797e-01
4.450000e+09 7.001642e-01 3.839507e-01 2.705855e-01 -4.452923e-01 2.705857e-01 -4.452926e-01 7.000906e-01 3.836844e-01
4.500000e+09 7.061337e-01 3.807001e-01 2.645200e-01 -4.425937e-01 2.645202e-01 -4.425940e-01 7.060591e-01 3.804314e-01
4.550000e+09 7.120085e-01 3.773941e-01 2.585512e-01 -4.398401e-01 2.585515e-01 -4.398404e-01 7.119327e-01 3.771229e-01
4.600000e+09 7.177894e-01 3.740349e-01 2.526783e-01 -4.370339e-01 2.526786e-01 -4.370342e-01 7.177124e-01 3.737612e-01
4.650000e+09 7.234773e-01 3.706248e-01 2.469003e-01 -4.341773e-01 2.469005e-01 -4.341776e-01 7.233992e-01 3.703486e-01
4.700000e+09 7.290732e-01 3.671658e-01 2.412160e-01 -4.312725e-01 2.412163e-01 -4.312728e-01 7.289940e-01 3.668872e-01
4.750000e+09 7.345780e-01 3.636601e-01 2.356246e-01 -4.283216e-01 2.356249e-01 -4.283219e-01 7.344977e-01 3.633790e-01
4.800000e+09 7.399927e-01 3.601096e-01 2.301250e-01 -4.253266e-01 2.301252e-01 -4.253269e-01 7.399112e-01 3.598260e-01
4.850000e+09 7.453183e-01 3.565162e-01 2.247162e-01 -4.222895e-01 2.247164e-01 -4.222898e-01 7.452356e-01 3.562301e-01
4.900000e+09 7.505557e-01 3.528818e-01 2.193971e-01 -4.192121e-01 2.193973e-01 -4.192124e-01 7.504718e-01 3.525932e-01
4.950000e+09 7.557058e-01 3.492081e-01 2.141668e-01 -4.160963e-01 2.141670e-01 -4.160967e-01 7.556208e-01 3.489170e-01
5.000000e+09 7.607698e-01 3.454969e-01 2.090241e-01 -4.129438e-01 2.090243e-01 -4.129442e-01 7.606836e-01 3.452033e-01
5.050000e+09 7.657484e-01 3.417498e-01 2.039681e-01 -4.097563e-01 2.039683e-01 -4.097567e-01 7.656610e-01 3.414537e-01
5.100000e+09 7.706428e-01 3.379684e-01 1.989977e-01 -4.065355e-01 1.989979e-01 -4.065358e-01 7.705542e-01 3.376698e-01
5.150000e+09 7.754538e-01 3.341543e-01 1.941119e-01 -4.032828e-01 1.941121e-01 -4.032831e-01 7.753641e-01 3.338531e-01
5.200000e+09 7.801825e-01 3.303089e-01 1.893097e-01 -3.999998e-01 1.893099e-01 -4.000001e-01 7.800915e-01 3.300052e-01
5.250000e+09 7.848298e-01 3.264337e-01 1.845900e-01 -3.966879e-01 1.845902e-01 -3.966883e-01 7.847376e-01 3.261275e-01
5.300000e+09 7.893967e-01 3.225300e-01 1.799519e-01 -3.933486e-01 1.799521e-01 -3.933490e-01 7.893032e-01 3.222212e-01
5.350000e+09 7.938841e-01 3.185992e-01 1.753943e-01 -3.899832e-01 1.753945e-01 -3.899836e-01 7.937894e-01 3.182879e-01
5.400000e+09 7.982929e-01 3.146425e-01 1.709162e-01 -3.865930e-01 1.709164e-01 -3.865934e-01 7.981969e-01 3.143287e-01
5.450000e+09 8.026242e-01 3.106613e-01 1.665167e-01 -3.831792e-01 1.665169e-01 -3.831796e-01 8.025269e-01 3.103449e-01
5.500000e+09 8.068787e-01 3.066566e-01 1.621947e-01 -3.797431e-01 1.621949e-01 -3.797435e-01 8.067802e-01 3.063377e-01
5.550000e+09 8.110575e-01 3.026297e-01 1.579493e-01 -3.762858e-01 1.579495e-01 -3.762862e-01 8.109577e-01 3.023083e-01
5.600000e+09 8.151615e-01 2.985817e-01 1.537796e-01 -3.728085e-01 1.537798e-01 -3.728088e-01 8.150603e-01 2.982577e-01
5.650000e+09 8.191915e-01 2.945135e-01 1.496845e-01 -3.693121e-01 1.496847e-01 -3.693125e-01 8.190890e-01 2.941870e-01
5.700000e+09 8.231484e-01 2.904264e-01 1.456632e-01 -3.657979e-01 1.456634e-01 -3.657983e-01 8.230447e-01 2.900973e-01
5.750000e+09 8.270332e-01 2.863212e-01 1.417147e-01 -3.622667e-01 1.417149e-01 -3.622671e-01 8.269281e-01 2.859896e-01
5.800000e+09 8.308467e-01 2.821990e-01 1.378381e-01 -3.587196e-01 1.378382e-01 -3.587199e-01 8.307403e-01 2.818648e-01
5.850000e+09 8.345898e-01 2.780606e-01 1.340324e-01 -3.551574e-01 1.340326e-01 -3.551578e-01 8.344819e-01 2.777239e-01
5.900000e+09 8.382632e-01 2.739070e-01 1.302969e-01 -3.515811e-01 1.302971e-01 -3.515815e-01 8.381540e-01 2.735678e-01
5.950000e+09 8.418679e-01 2.697391e-01 1.266306e-01 -3.479916e-01 1.266307e-01 -3.479919e-01 8.417573e-01 2.693972e-01
6.000000e+09 8.454047e-01 2.655576e-01 1.230326e-01 -3.443896e-01 1.230327e-01 -3.443900e-01 8.452927e-01 2.652132e-01
6.050000e+09 8.488743e-01 2.613634e-01 1.195020e-01 -3.407761e-01 1.195022e-01 -3.407764e-01 8.487609e-01 2.610164e-01
6.100000e+09 8.522777e-01 2.571572e-01 1.160381e-01 -3.371517e-01 1.160383e-01 -3.371521e-01 8.521628e-01 2.568078e-01
6.150000e+09 8.556155e-01 2.529399e-01 1.126400e-01 -3.335172e-01 1.126402e-01 -3.335176e-01 8.554992e-01 2.525879e-01
6.200000e+09 8.588886e-01 2.487122e-01 1.093069e-01 -3.298734e-01 1.093071e-01 -3.298738e-01 8.587709e-01 2.483576e-01
6.250000e+09 8.620977e-01 2.444747e-01 1.060380e-01 -3.262210e-01 1.060381e-01 -3.262214e-01 8.619785e-01 2.441176e-01
6.300000e+09 8.652437e-01 2.402282e-01 1.028324e-01 -3.225606e-01 1.028326e-01 -3.225610e-01 8.651230e-01 2.398685e-01
6.350000e+09 8.683272e-01 2.359733e-01 9.968941e-02 -3.188930e-01 9.968956e-02 -3.188933e-01 8.682050e-01 2.356110e-01
6.400000e+09 8.713489e-01 2.317107e-01 9.660824e-02 -3.152186e-01 9.660838e-02 -3.152190e-01 8.712252e-01 2.313458e-01
6.450000e+09 8.743097e-01 2.274409e-01 9.358811e-02 -3.115382e-01 9.358825e-02 -3.115386e-01 8.741845e-01 2.270735e-01
6.500000e+09 8.772102e-01 2.231646e-01 9.062829e-02 -3.078523e-01 9.062843e-02 -3.078527e-01 8.770834e-01 2.227947e-01
6.550000e+09 8.800511e-01 2.188823e-01 8.772803e-02 -3.041615e-01 8.772817e-02 -3.041619e-01 8.799228e-01 2.185099e-01
6.600000e+09 8.828331e-01 2.145947e-01 8.488661e-02 -3.004664e-01 8.488675e-02 -3.004668e-01 8.827032e-01 2.142197e-01
6.650000e+09 8.855569e-01 2.103022e-01 8.210332e-02 -2.967675e-01 8.210346e-02 -2.967679e-01 8.854255e-01 2.099247e-01
6.700000e+09 8.882232e-01 2.060055e-01 7.937746e-02 -2.930653e-01 7.937759e-02 -2.930657e-01 8.880902e-01 2.056253e-01
6.750000e+09 8.908327e-01 2.017049e-01 7.670833e-02 -2.893602e-01 7.670846e-02 -2.893606e-01 8.906980e-01 2.013222e-01
6.800000e+09 8.933859e-01 1.974010e-01 7.409525e-02 -2.856529e-01 7.409538e-02 -2.856533e-01 8.932496e-01 1.970158e-01
6.850000e+09 8.958835e-01 1.930943e-01 7.153757e-02 -2.819437e-01 7.153769e-02 -2.819441e-01 8.957455e-01 1.927065e-01
6.900000e+09 8.983262e-01 1.887852e-01 6.903461e-02 -2.782332e-01 6.903473e-02 -2.782336e-01 8.981866e-01 1.883949e-01
6.950000e+09 9.007146e-01 1.844742e-01 6.658573e-02 -2.745217e-01 6.658585e-02 -2.745221e-01 9.005732e-01 1.840814e-01
7.000000e+09 9.030492e-01 1.801618e-01 6.419029e-02 -2.708096e-01 6.419041e-02 -2.708100e-01 9.029062e-01 1.797664e-01
7.050000e+09 9.053307e-01 1.758483e-01 6.184768e-02 -2.670975e-01 6.184780e-02 -2.670979e-01 9.051860e-01 1.754504e-01
7.100000e+09 9.075597e-01 1.715342e-01 5.955726e-02 -2.633856e-01 5.955738e-02 -2.633860e-01 9.074133e-01 1.711338e-01
7.150000e+09 9.097368e-01 1.672198e-01 5.731845e-02 -2.596744e-01 5.731856e-02 -2.596748e-01 9.095886e-01 1.668169e-01
7.200000e+09 9.118624e-01 1.629056e-01 5.513063e-02 -2.559642e-01 5.513075e-02 -2.559646e-01 9.117125e-01 1.625002e-01
7.250000e+09 9.139373e-01 1.585919e-01 5.299323e-02 -2.522554e-01 5.299335e-02 -2.522559e-01 9.137856e-01 1.581840e-01
7.300000e+09 9.159620e-01 1.542792e-01 5.090567e-02 -2.485484e-01 5.090578e-02 -2.485489e-01 9.158085e-01 1.538687e-01
7.350000e+09 9.179369e-01 1.499676e-01 4.886738e-02 -2.448435e-01 4.886749e-02 -2.448440e-01 9.177816e-01 1.495547e-01
7.400000e+09 9.198627e-01 1.456577e-01 4.687780e-02 -2.411411e-01 4.687790e-02 -2.411415e-01 9.197056e-01 1.452423e-01
7.450000e+09 9.217398e-01 1.413498e-01 4.493638e-02 -2.374413e-01 4.493648e-02 -2.374418e-01 9.215809e-01 1.409319e-01
7.500000e+09 9.235688e-01 1.370441e-01 4.304258e-02 -2.337447e-01 4.304269e-02 -2.337451e-01 9.234080e-01 1.366237e-01
7.550000e+09 9.253503e-01 1.327410e-01 4.119588e-02 -2.300514e-01 4.119598e-02 -2.300518e-01 9.251876e-01 1.323181e-01
7.600000e+09 9.270846e-01 1.284408e-01 3.939574e-02 -2.263618e-01 3.939584e-02 -2.263622e-01 9.269201e-01 1.280154e-01
7.650000e+09 9.287723e-01 1.241438e-01 3.764165e-02 -2.226761e-01 3.764175e-02 -2.226765e-01 9.286059e-01 1.237160e-01
7.700000e+09 9.304140e-01 1.198502e-01 3.593310e-02 -2.189947e-01 3.593320e-02 -2.189951e-01 9.302456e-01 1.194200e-01
7.750000e+09 9.320100e-01 1.155605e-01 3.426961e-02 -2.153177e-01 3.426970e-02 -2.153181e-01 9.318397e-01 1.151278e-01
7.800000e+09 9.335609e-01 1.112748e-01 3.265066e-02 -2.116455e-01 3.265076e-02 -2.116459e-01 9.333887e-01 1.108397e-01
7.850000e+09 9.350672e-01 1.069935e-01 3.107579e-02 -2.079783e-01 3.107588e-02 -2.079787e-01 9.348930e-01 1.065559e-01
7.900000e+09 9.365292e-01 1.027167e-01 2.954451e-02 -2.043164e-01 2.954460e-02 -2.043168e-01 9.363530e-01 1.022768e-01
7.950000e+09 9.379475e-01 9.844483e-02 2.805635e-02 -2.006600e-01 2.805644e-02 -2.006604e-01 9.377693e-01 9.800246e-02
8.000000e+09 9.393224e-01 9.417804e-02 2.661086e-02 -1.970093e-01 2.661095e-02 -1.970097e-01 9.391423e-01 9.373326e-02
8.050000e+09 9.406546e-01 8.991659e-02 2.520758e-02 -1.933646e-01 2.520767e-02 -1.933650e-01 9.404724e-01 8.946943e-02
8.100000e+09 9.419443e-01 8.566074e-02 2.384605e-02 -1.897261e-01 2.384614e-02 -1.897265e-01 9.417600e-01 8.521118e-02
8.150000e+09 9.431920e-01 8.141070e-02 2.252585e-02 -1.860940e-01 2.252594e-02 -1.860944e-01 9.430057e-01 8.095877e-02
8.200000e+09 9.443982e-01 7.716671e-02 2.124653e-02 -1.824685e-01 2.124662e-02 -1.824689e-01 9.442098e-01 7.671242e-02
8.250000e+09 9.455632e-01 7.292898e-02 2.000767e-02 -1.788498e-01 2.000776e-02 -1.788502e-01 9.453727e-01 7.247234e-02
8.300000e+09 9.466875e-01 6.869775e-02 1.880885e-02 -1.752382e-01 1.880893e-02 -1.752386e-01 9.464949e-01 6.823876e-02
8.350000e+09 9.477715e-01 6.447320e-02 1.764964e-02 -1.716337e-01 1.764972e-02 -1.716342e-01 9.475768e-01 6.401189e-02
8.400000e+09 9.488155e-01 6.025556e-02 1.652964e-02 -1.680367e-01 1.652972e-02 -1.680372e-01 9.486187e-01 5.979193e-02
8.450000e+09 9.498201e-01 5.604502e-02 1.544845e-02 -1.644473e-01 1.544853e-02 -1.644477e-01 9.496211e-01 5.557908e-02
8.500000e+09 9.507855e-01 5.184178e-02 1.440566e-02 -1.608657e-01 1.440574e-02 -1.608661e-01 9.505843e-01 5.137354e-02
8.550000e+09 9.517122e-01 4.764603e-02 1.340089e-02 -1.572920e-01 1.340097e-02 -1.572924e-01 9.515088e-01 4.717550e-02
8.600000e+09 9.526005e-01 4.345795e-02 1.243374e-02 -1.537264e-01 1.243382e-02 -1.537269e-01 9.523949e-01 4.298515e-02
8.650000e+09 9.534508e-01 3.927774e-02 1.150384e-02 -1.501691e-01 1.150392e-02 -1.501696e-01 9.532430e-01 3.880267e-02
8.700000e+09 9.542635e-01 3.510556e-02 1.061082e-02 -1.466203e-01 1.061089e-02 -1.466208e-01 9.540535e-01 3.462825e-02
8.750000e+09 9.550390e-01 3.094159e-02 9.754283e-03 -1.430801e-01 9.754356e-03 -1.430806e-01 9.548267e-01 3.046204e-02
8.800000e+09 9.557776e-01 2.678601e-02 8.933884e-03 -1.395487e-01 8.933955e-03 -1.395491e-01 9.555631e-01 2.630423e-02
8.850000e+09 9.564797e-01 2.263897e-02 8.149254e-03 -1.360262e-01 8.149325e-03 -1.360266e-01 9.562629e-01 2.215498e-02
8.900000e+09 9.571456e-01 1.850064e-02 7.400039e-03 -1.325127e-01 7.400108e-03 -1.325132e-01 9.569265e-01 1.801446e-02
8.950000e+09 9.577757e-01 1.437118e-02 6.685885e-03 -1.290085e-01 6.685954e-03 -1.290090e-01 9.575543e-01 1.388282e-02
9.000000e+09 9.583703e-01 1.025075e-02 6.006447e-03 -1.255137e-01 6.006514e-03 -1.255141e-01 9.581466e-01 9.760214e-03
9.050000e+09 9.589298e-01 6.139488e-03 5.361381e-03 -1.220283e-01 5.361447e-03 -1.220287e-01 9.587037e-01 5.646800e-03
9.100000e+09 9.594545e-01 2.037552e-03 4.750349e-03 -1.185525e-01 4.750414e-03 -1.185530e-01 9.592261e-01 1.542724e-03
9.150000e+09 9.599447e-01 -2.054915e-03 4.173017e-03 -1.150866e-01 4.173081e-03 -1.150870e-01 9.597139e-01 -2.551869e-03
9.200000e+09 9.604009e-01 -6.137773e-03 3.629056e-03 -1.116305e-01 3.629119e-03 -1.116309e-01 9.601676e-01 -6.636838e-03
9.250000e+09 9.608231e-01 -1.021088e-02 3.118139e-03 -1.081844e-01 3.118201e-03 -1.081849e-01 9.605875e-01 -1.071204e-02
9.300000e+09 9.612120e-01 -1.427411e-02 2.639946e-03 -1.047485e-01 2.640007e-03 -1.047489e-01 9.609739e-01 -1.477735e-02
9.350000e+09 9.615676e-01 -1.832732e-02 2.194158e-03 -1.013228e-01 2.194218e-03 -1.013233e-01 9.613272e-01 -1.883263e-02
9.400000e+09 9.618904e-01 -2.237039e-02 1.780463e-03 -9.790750e-02 1.780522e-03 -9.790797e-02 9.616475e-01 -2.287775e-02
9.450000e+09 9.621807e-01 -2.640319e-02 1.398550e-03 -9.450269e-02 1.398608e-03 -9.450316e-02 9.619353e-01 -2.691258e-02
9.500000e+09 9.624387e-01 -3.042560e-02 1.048114e-03 -9.110848e-02 1.048171e-03 -9.110895e-02 9.621909e-01 -3.093701e-02
9.550000e+09 9.626648e-01 -3.443750e-02 7.288508e-04 -8.772498e-02 7.289067e-04 -8.772545e-02 9.624145e-01 -3.495090e-02
9.600000e+09 9.628593e-01 -3.843876e-02 4.404627e-04 -8.435229e-02 4.405176e-04 -8.435277e-02 9.626064e-01 -3.895415e-02
9.650000e+09 9.630224e-01 -4.242928e-02 1.826542e-04 -8.099053e-02 1.827080e-04 -8.099100e-02 9.627671e-01 -4.294664e-02
9.700000e+09 9.631545e-01 -4.640894e-02 -4.486683e-05 -7.763978e-02 -4.481409e-05 -7.764026e-02 9.628967e-01 -4.692825e-02
9.750000e+09 9.632559e-01 -5.037764e-02 -2.423889e-04 -7.430016e-02 -2.423372e-04 -7.430064e-02 9.629955e-01 -5.089888e-02
9.800000e+09 9.633268e-01 -5.433526e-02 -4.101973e-04 -7.097175e-02 -4.101467e-04 -7.097223e-02 9.630638e-01 -5.485842e-02
9.850000e+09 9.633676e-01 -5.828171e-02 -5.485740e-04 -6.765465e-02 -5.485245e-04 -6.765514e-02 9.631020e-01 -5.880676e-02
9.900000e+09 9.633784e-01 -6.221687e-02 -6.577980e-04 -6.434896e-02 -6.577496e-04 -6.434945e-02 9.631103e-01 -6.274381e-02
9.950000e+09 9.633597e-01 -6.614066e-02 -7.381450e-04 -6.105476e-02 -7.380977e-04 -6.105525e-02 9.630890e-01 -6.666946e-02
1.000000e+10 9.633116e-01 -7.005297e-02 -7.898877e-04 -5.777214e-02 -7.898414e-04 -5.777264e-02 9.630383e-01 -7.058362e-02
1.005000e+10 9.632345e-01 -7.395371e-02 -8.132957e-04 -5.450119e-02 -8.132506e-04 -5.450169e-02 9.629586e-01 -7.448618e-02
1.010000e+10 9.631286e-01 -7.784279e-02 -8.086359e-04 -5.124200e-02 -8.085919e-04 -5.124250e-02 9.628501e-01 -7.837707e-02
1.015000e+10 9.629942e-01 -8.172012e-02 -7.761721e-04 -4.799464e-02 -7.761292e-04 -4.799514e-02 9.627130e-01 -8.225618e-02
1.020000e+10 9.628316e-01 -8.558560e-02 -7.161653e-04 -4.475919e-02 -7.161236e-04 -4.475969e-02 9.625477e-01 -8.612343e-02
1.025000e+10 9.626409e-01 -8.943916e-02 -6.288737e-04 -4.153573e-02 -6.288332e-04 -4.153624e-02 9.623544e-01 -8.997874e-02
1.030000e+10 9.624226e-01 -9.328071e-02 -5.145530e-04 -3.832434e-02 -5.145136e-04 -3.832485e-02 9.621334e-01 -9.382202e-02
1.035000e+10 9.621768e-01 -9.711016e-02 -3.734558e-04 -3.512509e-02 -3.734176e-04 -3.512560e-02 9.618849e-01 -9.765319e-02
1.040000e+10 9.619038e-01 -1.009274e-01 -2.058323e-04 -3.193805e-02 -2.057954e-04 -3.193857e-02 9.616092e-01 -1.014722e-01
1.045000e+10 9.616038e-01 -1.047325e-01 -1.193017e-05 -2.876330e-02 -1.189444e-05 -2.876383e-02 9.613065e-01 -1.052789e-01
1.050000e+10 9.612771e-01 -1.085252e-01 2.080057e-04 -2.560091e-02 2.080402e-04 -2.560143e-02 9.609771e-01 -1.090732e-01
1.055000e+10 9.609240e-01 -1.123055e-01 4.537327e-04 -2.245093e-02 4.537659e-04 -2.245146e-02 9.606212e-01 -1.128552e-01
1.060000e+10 9.605447e-01 -1.160734e-01 7.250109e-04 -1.931344e-02 7.250429e-04 -1.931397e-02 9.602392e-01 -1.166247e-01
1.065000e+10 9.601394e-01 -1.198287e-01 1.021603e-03 -1.618850e-02 1.021633e-03 -1.618903e-02 9.598311e-01 -1.203816e-01
1.070000e+10 9.597085e-01 -1.235714e-01 1.343273e-03 -1.307617e-02 1.343302e-03 -1.307670e-02 9.593974e-01 -1.241259e-01
1.075000e+10 9.592520e-01 -1.273015e-01 1.689789e-03 -9.976505e-03 1.689817e-03 -9.977046e-03 9.589381e-01 -1.278575e-01
1.080000e+10 9.587703e-01 -1.310188e-01 2.060920e-03 -6.889573e-03 2.060947e-03 -6.890118e-03 9.584536e-01 -1.315763e-01
1.085000e+10 9.582636e-01 -1.347233e-01 2.456438e-03 -3.815428e-03 2.456463e-03 -3.815977e-03 9.579441e-01 -1.352824e-01
1.090000e+10 9.577321e-01 -1.384150e-01 2.876117e-03 -7.541238e-04 2.876141e-03 -7.546767e-04 9.574098e-01 -1.389755e-01
1.095000e+10 9.571761e-01 -1.420938e-01 3.319733e-03 2.294285e-03 3.319756e-03 2.293728e-03 9.568509e-01 -1.426558e-01
1.100000e+10 9.565957e-01 -1.457596e-01 3.787065e-03 5.329745e-03 3.787086e-03 5.329184e-03 9.562678e-01 -1.463230e-01
1.105000e+10 9.559913e-01 -1.494124e-01 4.277894e-03 8.352208e-03 4.277913e-03 8.351642e-03 9.556605e-01 -1.499772e-01
1.110000e+10 9.553631e-01 -1.530521e-01 4.792001e-03 1.136162e-02 4.792020e-03 1.136105e-02 9.550294e-01 -1.536184e-01
1.115000e+10 9.547112e-01 -1.566787e-01 5.329173e-03 1.435794e-02 5.329190e-03 1.435737e-02 9.543746e-01 -1.572463e-01
1.120000e+10 9.540359e-01 -1.602922e-01 5.889197e-03 1.734112e-02 5.889212e-03 1.734054e-02 9.536965e-01 -1.608611e-01
1.125000e+10 9.533374e-01 -1.638924e-01 6.471860e-03 2.031111e-02 6.471874e-03 2.031053e-02 9.529951e-01 -1.644627e-01
1.130000e+10 9.526159e-01 -1.674793e-01 7.076955e-03 2.326788e-02 7.076968e-03 2.326729e-02 9.522707e-01 -1.680510e-01
1.135000e+10 9.518716e-01 -1.710530e-01 7.704275e-03 2.621137e-02 7.704286e-03 2.621077e-02 9.515236e-01 -1.716259e-01
1.140000e+10 9.511049e-01 -1.746133e-01 8.353615e-03 2.914155e-02 8.353624e-03 2.914095e-02 9.507539e-01 -1.751875e-01
1.145000e+10 9.503157e-01 -1.781602e-01 9.024771e-03 3.205838e-02 9.024779e-03 3.205777e-02 9.499618e-01 -1.787357e-01
1.150000e+10 9.495045e-01 -1.816937e-01 9.717543e-03 3.496182e-02 9.717550e-03 3.496121e-02 9.491476e-01 -1.822704e-01
1.155000e+10 9.486713e-01 -1.852138e-01 1.043173e-02 3.785183e-02 1.043174e-02 3.785122e-02 9.483115e-01 -1.857916e-01
1.160000e+10 9.478164e-01 -1.887203e-01 1.116714e-02 4.072838e-02 1.116715e-02 4.072777e-02 9.474537e-01 -1.892994e-01
1.165000e+10 9.469400e-01 -1.922134e-01 1.192358e-02 4.359144e-02 1.192358e-02 4.359082e-02 9.465744e-01 -1.927935e-01
1.170000e+10 9.460423e-01 -1.956928e-01 1.270084e-02 4.644098e-02 1.270084e-02 4.644035e-02 9.456737e-01 -1.962741e-01
1.175000e+10 9.451235e-01 -1.991587e-01 1.349875e-02 4.927696e-02 1.349874e-02 4.927632e-02 9.447519e-01 -1.997411e-01
1.180000e+10 9.441837e-01 -2.026110e-01 1.431710e-02 5.209935e-02 1.431710e-02 5.209870e-02 9.438092e-01 -2.031945e-01
1.185000e+10 9.432233e-01 -2.060496e-01 1.515572e-02 5.490812e-02 1.515572e-02 5.490747e-02 9.428458e-01 -2.066341e-01
1.190000e+10 9.422423e-01 -2.094745e-01 1.601442e-02 5.770325e-02 1.601441e-02 5.770260e-02 9.418618e-01 -2.100601e-01
1.195000e+10 9.412410e-01 -2.128858e-01 1.689301e-02 6.048471e-02 1.689300e-02 6.048405e-02 9.408575e-01 -2.134724e-01
1.200000e+10 9.402196e-01 -2.162833e-01 1.779130e-02 6.325248e-02 1.779129e-02 6.325182e-02 9.398331e-01 -2.168709e-01
1.205000e+10 9.391782e-01 -2.196671e-01 1.870913e-02 6.600653e-02 1.870912e-02 6.600586e-02 9.387887e-01 -2.202557e-01
1.210000e+10 9.381170e-01 -2.230371e-01 1.964631e-02 6.874685e-02 1.964630e-02 6.874617e-02 9.377245e-01 -2.236266e-01
1.215000e+10 9.370363e-01 -2.263934e-01 2.060267e-02 7.147340e-02 2.060266e-02 7.147271e-02 9.366408e-01 -2.269838e-01
1.220000e+10 9.359361e-01 -2.297358e-01 2.157803e-02 7.418617e-02 2.157801e-02 7.418548e-02 9.355376e-01 -2.303272e-01
1.225000e+10 9.348168e-01 -2.330645e-01 2.257221e-02 7.688514e-02 2.257219e-02 7.688444e-02 9.344152e-01 -2.336567e-01
1.230000e+10 9.336784e-01 -2.363793e-01 2.358504e-02 7.957030e-02 2.358502e-02 7.956959e-02 9.332738e-01 -2.369724e-01
1.235000e+10 9.325212e-01 -2.396803e-01 2.461636e-02 8.224162e-02 2.461634e-02 8.224091e-02 9.321136e-01 -2.402742e-01
1.240000e+10 9.313452e-01 -2.429675e-01 2.566600e-02 8.489909e-02 2.566598e-02 8.489837e-02 9.309346e-01 -2.435622e-01
1.245000e+10 9.301508e-01 -2.462408e-01 2.673379e-02 8.754270e-02 2.673376e-02 8.754198e-02 9.297371e-01 -2.468363e-01
1.250000e+10 9.289380e-01 -2.495003e-01 2.781956e-02 9.017244e-02 2.781953e-02 9.017171e-02 9.285213e-01 -2.500965e-01
1.255000e+10 9.277071e-01 -2.527458e-01 2.892315e-02 9.278829e-02 2.892312e-02 9.278755e-02 9.272873e-01 -2.533428e-01
1.260000e+10 9.264582e-01 -2.559776e-01 3.004441e-02 9.539024e-02 3.004438e-02 9.538949e-02 9.260353e-01 -2.565752e-01
1.265000e+10 9.251914e-01 -2.591954e-01 3.118317e-02 9.797828e-02 3.118314e-02 9.797752e-02 9.247655e-01 -2.597937e-01
1.270000e+10 9.239070e-01 -2.623993e-01 3.233927e-02 1.005524e-01 3.233924e-02 1.005516e-01 9.234780e-01 -2.629983e-01
1.275000e+10 9.226050e-01 -2.655894e-01 3.351256e-02 1.031126e-01 3.351253e-02 1.031118e-01 9.221730e-01 -2.661890e-01
1.280000e+10 9.212857e-01 -2.687656e-01 3.470289e-02 1.056589e-01 3.470285e-02 1.056581e-01 9.208507e-01 -2.693658e-01
1.285000e+10 9.199493e-01 -2.719279e-01 3.591010e-02 1.081912e-01 3.591006e-02 1.081904e-01 9.195112e-01 -2.725287e-01
1.290000e+10 9.185958e-01 -2.750764e-01 3.713404e-02 1.107096e-01 3.713399e-02 1.107088e-01 9.181546e-01 -2.756777e-01
1.295000e+10 9.172254e-01 -2.782109e-01 3.837456e-02 1.132140e-01 3.837451e-02 1.132132e-01 9.167812e-01 -2.788128e-01
1.300000e+10 9.158384e-01 -2.813316e-01 3.963151e-02 1.157045e-01 3.963147e-02 1.157037e-01 9.153910e-01 -2.819340e-01
1.305000e+10 9.144347e-01 -2.844385e-01 4.090475e-02 1.181811e-01 4.090471e-02 1.181803e-01 9.139843e-01 -2.850413e-01
1.310000e+10 9.130146e-01 -2.875314e-01 4.219414e-02 1.206437e-01 4.219409e-02 1.206429e-01 9.125612e-01 -2.881348e-01
1.315000e+10 9.115783e-01 -2.906106e-01 4.349953e-02 1.230923e-01 4.349948e-02 1.230915e-01 9.111217e-01 -2.912144e-01
1.320000e+10 9.101259e-01 -2.936759e-01 4.482079e-02 1.255270e-01 4.482073e-02 1.255262e-01 9.096662e-01 -2.942801e-01
1.325000e+10 9.086574e-01 -2.967274e-01 4.615777e-02 1.279478e-01 4.615771e-02 1.279469e-01 9.081947e-01 -2.973319e-01
1.330000e+10 9.071731e-01 -2.997650e-01 4.751033e-02 1.303546e-01 4.751027e-02 1.303538e-01 9.067073e-01 -3.003700e-01
1.335000e+10 9.056732e-01 -3.027889e-01 4.887835e-02 1.327475e-01 4.887829e-02 1.327466e-01 9.052043e-01 -3.033942e-01
1.340000e+10 9.041576e-01 -3.057990e-01 5.026168e-02 1.351264e-01 5.026162e-02 1.351256e-01 9.036856e-01 -3.064045e-01
1.345000e+10 9.026266e-01 -3.087953e-01 5.166021e-02 1.374914e-01 5.166014e-02 1.374906e-01 9.021516e-01 -3.094011e-01
1.350000e+10 9.010804e-01 -3.117778e-01 5.307379e-02 1.398425e-01 5.307372e-02 1.398416e-01 9.006022e-01 -3.123840e-01
1.355000e+10 8.995190e-01 -3.147466e-01 5.450230e-02 1.421797e-01 5.450223e-02 1.421788e-01 8.990377e-01 -3.153530e-01
1.360000e+10 8.979425e-01 -3.177017e-01 5.594561e-02 1.445030e-01 5.594554e-02 1.445021e-01 8.974582e-01 -3.183083e-01
1.365000e+10 8.963511e-01 -3.206431e-01 5.740360e-02 1.468124e-01 5.740353e-02 1.468114e-01 8.958638e-01 -3.212499e-01
1.370000e+10 8.947450e-01 -3.235708e-01 5.887615e-02 1.491079e-01 5.887608e-02 1.491069e-01 8.942545e-01 -3.241778e-01
1.375000e+10 8.931242e-01 -3.264849e-01 6.036313e-02 1.513895e-01 6.036306e-02 1.513885e-01 8.926307e-01 -3.270920e-01
1.380000e+10 8.914888e-01 -3.293853e-01 6.186444e-02 1.536572e-01 6.186436e-02 1.536563e-01 8.909922e-01 -3.299925e-01
1.385000e+10 8.898391e-01 -3.322721e-01 6.337994e-02 1.559111e-01 6.337986e-02 1.559101e-01 8.893394e-01 -3.328794e-01
1.390000e+10 8.881750e-01 -3.351453e-01 6.490952e-02 1.581511e-01 6.490944e-02 1.581502e-01 8.876723e-01 -3.357527e-01
1.395000e+10 8.864968e-01 -3.380050e-01 6.645308e-02 1.603774e-01 6.645300e-02 1.603764e-01 8.859910e-01 -3.386124e-01
1.400000e+10 8.848044e-01 -3.408511e-01 6.801050e-02 1.625898e-01 6.801042e-02 1.625888e-01 8.842956e-01 -3.414586e-01
1.405000e+10 8.830982e-01 -3.436837e-01 6.958167e-02 1.647884e-01 6.958159e-02 1.647874e-01 8.825862e-01 -3.442911e-01
1.410000e+10 8.813780e-01 -3.465028e-01 7.116649e-02 1.669732e-01 7.116640e-02 1.669722e-01 8.808630e-01 -3.471102e-01
1.415000e+10 8.796441e-01 -3.493084e-01 7.276484e-02 1.691442e-01 7.276475e-02 1.691432e-01 8.791261e-01 -3.499158e-01
1.420000e+10 8.778966e-01 -3.521006e-01 7.437662e-02 1.713015e-01 7.437653e-02 1.713005e-01 8.773755e-01 -3.527080e-01
1.425000e+10 8.761355e-01 -3.548794e-01 7.600174e-02 1.734451e-01 7.600165e-02 1.734441e-01 8.756113e-01 -3.554867e-01
1.430000e+10 8.743609e-01 -3.576449e-01 7.764009e-02 1.755749e-01 7.764000e-02 1.755739e-01 8.738337e-01 -3.582520e-01
1.435000e+10 8.725730e-01 -3.603970e-01 7.929158e-02 1.776911e-01 7.929149e-02 1.776900e-01 8.720428e-01 -3.610039e-01
1.440000e+10 8.707719e-01 -3.631357e-01 8.095611e-02 1.797935e-01 8.095601e-02 1.797925e-01 8.702386e-01 -3.637425e-01
1.445000e+10 8.689575e-01 -3.658612e-01 8.263358e-02 1.818823e-01 8.263348e-02 1.818812e-01 8.684212e-01 -3.664678e-01
1.450000e+10 8.671301e-01 -3.685734e-01 8.432390e-02 1.839574e-01 8.432380e-02 1.839564e-01 8.665908e-01 -3.691798e-01
1.455000e+10 8.652897e-01 -3.712724e-01 8.602699e-02 1.860190e-01 8.602689e-02 1.860179e-01 8.647474e-01 -3.718786e-01
1.460000e+10 8.634364e-01 -3.739583e-01 8.774276e-02 1.880669e-01 8.774266e-02 1.880658e-01 8.628910e-01 -3.745642e-01
1.465000e+10 8.615702e-01 -3.766309e-01 8.947112e-02 1.901012e-01 8.947101e-02 1.901001e-01 8.610219e-01 -3.772365e-01
1.470000e+10 8.596914e-01 -3.792904e-01 9.121198e-02 1.921219e-01 9.121187e-02 1.921208e-01 8.591400e-01 -3.798957e-01
1.475000e+10 8.577998e-01 -3.819369e-01 9.296527e-02 1.941291e-01 9.296516e-02 1.941280e-01 8.572454e-01 -3.825419e-01
1.480000e+10 8.558956e-01 -3.845703e-01 9.473091e-02 1.961227e-01 9.473080e-02 1.961216e-01 8.553382e-01 -3.851749e-01
1.485000e+10 8.539789e-01 -3.871906e-01 9.650882e-02 1.981029e-01 9.650871e-02 1.981017e-01 8.534186e-01 -3.877948e-01
1.490000e+10 8.520498e-01 -3.897979e-01 9.829892e-02 2.000696e-01 9.829881e-02 2.000684e-01 8.514864e-01 -3.904018e-01
1.495000e+10 8.501082e-01 -3.923923e-01 1.001011e-01 2.020227e-01 1.001010e-01 2.020216e-01 8.495419e-01 -3.929958e-01
1.500000e+10 8.481544e-01 -3.949738e-01 1.019154e-01 2.039625e-01 1.019153e-01 2.039613e-01 8.475851e-01 -3.955768e-01
1.505000e+10 8.461882e-01 -3.975423e-01 1.037417e-01 2.058888e-01 1.037416e-01 2.058876e-01 8.456159e-01 -3.981449e-01
1.510000e+10 8.442099e-01 -4.000980e-01 1.055799e-01 2.078017e-01 1.055797e-01 2.078005e-01 8.436346e-01 -4.007001e-01
1.515000e+10 8.422193e-01 -4.026409e-01 1.074299e-01 2.097012e-01 1.074298e-01 2.097000e-01 8.416412e-01 -4.032424e-01
1.520000e+10 8.402167e-01 -4.051709e-01 1.092917e-01 2.115874e-01 1.092916e-01 2.115861e-01 8.396356e-01 -4.057719e-01
1.525000e+10 8.382021e-01 -4.076882e-01 1.111652e-01 2.134601e-01 1.111651e-01 2.134589e-01 8.376180e-01 -4.082887e-01
1.530000e+10 8.361754e-01 -4.101928e-01 1.130505e-01 2.153196e-01 1.130503e-01 2.153184e-01 8.355885e-01 -4.107927e-01
1.535000e+10 8.341368e-01 -4.126846e-01 1.149473e-01 2.171658e-01 1.149472e-01 2.171645e-01 8.335469e-01 -4.132839e-01
1.540000e+10 8.320862e-01 -4.151638e-01 1.168557e-01 2.189986e-01 1.168556e-01 2.189974e-01 8.314935e-01 -4.157624e-01
1.545000e+10 8.300238e-01 -4.176303e-01 1.187756e-01 2.208182e-01 1.187755e-01 2.208170e-01 8.294281e-01 -4.182283e-01
1.550000e+10 8.279495e-01 -4.200842e-01 1.207070e-01 2.226245e-01 1.207068e-01 2.226233e-01 8.273510e-01 -4.206816e-01
1.555000e+10 8.258635e-01 -4.225255e-01 1.226498e-01 2.244176e-01 1.226496e-01 2.244164e-01 8.252620e-01 -4.231222e-01
1.560000e+10 8.237656e-01 -4.249543e-01 1.246040e-01 2.261975e-01 1.246038e-01 2.261962e-01 8.231613e-01 -4.255502e-01
1.565000e+10 8.216560e-01 -4.273705e-01 1.265695e-01 2.279642e-01 1.265693e-01 2.279629e-01 8.210489e-01 -4.279657e-01
1.570000e+10 8.195347e-01 -4.297742e-01 1.285463e-01 2.297176e-01 1.285461e-01 2.297163e-01 8.189247e-01 -4.303687e-01
1.575000e+10 8.174017e-01 -4.321654e-01 1.305343e-01 2.314579e-01 1.305342e-01 2.314566e-01 8.167888e-01 -4.327591e-01
1.580000e+10 8.152569e-01 -4.345441e-01 1.325336e-01 2.331850e-01 1.325335e-01 2.331837e-01 8.146413e-01 -4.351371e-01
1.585000e+10 8.131006e-01 -4.369104e-01 1.345441e-01 2.348990e-01 1.345439e-01 2.348977e-01 8.124821e-01 -4.375026e-01
1.590000e+10 8.109325e-01 -4.392643e-01 1.365657e-01 2.365998e-01 1.365656e-01 2.365985e-01 8.103112e-01 -4.398556e-01
1.595000e+10 8.087529e-01 -4.416058e-01 1.385985e-01 2.382875e-01 1.385983e-01 2.382862e-01 8.081288e-01 -4.421963e-01
1.600000e+10 8.065616e-01 -4.439349e-01 1.406424e-01 2.399621e-01 1.406422e-01 2.399608e-01 8.059347e-01 -4.445245e-01
1.605000e+10 8.043586e-01 -4.462517e-01 1.426974e-01 2.416236e-01 1.426972e-01 2.416222e-01 8.037290e-01 -4.468403e-01
1.610000e+10 8.021441e-01 -4.485561e-01 1.447634e-01 2.432719e-01 1.447632e-01 2.432706e-01 8.015117e-01 -4.491438e-01
1.615000e+10 7.999179e-01 -4.508481e-01 1.468405e-01 2.449072e-01 1.468403e-01 2.449058e-01 7.992827e-01 -4.514349e-01
1.620000e+10 7.976801e-01 -4.531278e-01 1.489286e-01 2.465293e-01 1.489284e-01 2.465279e-01 7.970422e-01 -4.537137e-01
1.625000e+10 7.954306e-01 -4.553952e-01 1.510277e-01 2.481384e-01 1.510275e-01 2.481370e-01 7.947900e-01 -4.559801e-01
1.630000e+10 7.931695e-01 -4.576503e-01 1.531378e-01 2.497343e-01 1.531376e-01 2.497329e-01 7.925262e-01 -4.582342e-01
1.635000e+10 7.908968e-01 -4.598931e-01 1.552590e-01 2.513172e-01 1.552588e-01 2.513158e-01 7.902507e-01 -4.604760e-01
1.640000e+10 7.886124e-01 -4.621236e-01 1.573911e-01 2.528870e-01 1.573909e-01 2.528856e-01 7.879636e-01 -4.627055e-01
1.645000e+10 7.863163e-01 -4.643418e-01 1.595342e-01 2.544436e-01 1.595340e-01 2.544422e-01 7.856648e-01 -4.649226e-01
1.650000e+10 7.840084e-01 -4.665477e-01 1.616883e-01 2.559872e-01 1.616881e-01 2.559858e-01 7.833543e-01 -4.671274e-01
1.655000e+10 7.816889e-01 -4.687413e-01 1.638533e-01 2.575176e-01 1.638531e-01 2.575162e-01 7.810321e-01 -4.693199e-01
1.660000e+10 7.793576e-01 -4.709225e-01 1.660294e-01 2.590349e-01 1.660292e-01 2.590335e-01 7.786982e-01 -4.715000e-01
1.665000e+10 7.770145e-01 -4.730915e-01 1.682165e-01 2.605391e-01 1.682162e-01 2.605377e-01 7.763525e-01 -4.736678e-01
1.670000e+10 7.746596e-01 -4.752481e-01 1.704145e-01 2.620301e-01 1.704143e-01 2.620287e-01 7.739950e-01 -4.758233e-01
1.675000e+10 7.722929e-01 -4.773923e-01 1.726235e-01 2.635079e-01 1.726233e-01 2.635065e-01 7.716257e-01 -4.779664e-01
1.680000e+10 7.699143e-01 -4.795242e-01 1.748436e-01 2.649725e-01 1.748434e-01 2.649711e-01 7.692444e-01 -4.800970e-01
1.685000e+10 7.675238e-01 -4.816436e-01 1.770747e-01 2.664239e-01 1.770745e-01 2.664225e-01 7.668513e-01 -4.822153e-01
1.690000e+10 7.651213e-01 -4.837507e-01 1.793169e-01 2.678621e-01 1.793166e-01 2.678607e-01 7.644463e-01 -4.843211e-01
1.695000e+10 7.627068e-01 -4.858453e-01 1.815701e-01 2.692870e-01 1.815698e-01 2.692856e-01 7.620292e-01 -4.864145e-01
1.700000e+10 7.602803e-01 -4.879274e-01 1.838343e-01 2.706986e-01 1.838341e-01 2.706972e-01 7.596002e-01 -4.884953e-01
1.705000e+10 7.578416e-01 -4.899970e-01 1.861097e-01 2.720969e-01 1.861095e-01 2.720954e-01 7.571590e-01 -4.905636e-01
1.710000e+10 7.553909e-01 -4.920540e-01 1.883962e-01 2.734818e-01 1.883960e-01 2.734803e-01 7.547057e-01 -4.926194e-01
1.715000e+10 7.529279e-01 -4.940985e-01 1.906939e-01 2.748532e-01 1.906936e-01 2.748518e-01 7.522403e-01 -4.946625e-01
1.720000e+10 7.504527e-01 -4.961303e-01 1.930027e-01 2.762113e-01 1.930024e-01 2.762098e-01 7.497626e-01 -4.966929e-01
1.725000e+10 7.479652e-01 -4.981493e-01 1.953227e-01 2.775558e-01 1.953224e-01 2.775543e-01 7.472726e-01 -4.987106e-01
1.730000e+10 7.454653e-01 -5.001556e-01 1.976540e-01 2.788867e-01 1.976537e-01 2.788853e-01 7.447703e-01 -5.007155e-01
1.735000e+10 7.429530e-01 -5.021491e-01 1.999965e-01 2.802041e-01 1.999962e-01 2.802026e-01 7.422556e-01 -5.027076e-01
1.740000e+10 7.404283e-01 -5.041297e-01 2.023503e-01 2.815077e-01 2.023500e-01 2.815063e-01 7.397284e-01 -5.046868e-01
1.745000e+10 7.378910e-01 -5.060973e-01 2.047154e-01 2.827977e-01 2.047151e-01 2.827962e-01 7.371887e-01 -5.066530e-01
1.750000e+10 7.353411e-01 -5.080519e-01 2.070919e-01 2.840738e-01 2.070916e-01 2.840724e-01 7.346364e-01 -5.086061e-01
1.755000e+10 7.327785e-01 -5.099934e-01 2.094798e-01 2.853361e-01 2.094795e-01 2.853347e-01 7.320714e-01 -5.105461e-01
1.760000e+10 7.302032e-01 -5.119216e-01 2.118791e-01 2.865845e-01 2.118788e-01 2.865830e-01 7.294938e-01 -5.124728e-01
1.765000e+10 7.276151e-01 -5.138366e-01 2.142899e-01 2.878188e-01 2.142896e-01 2.878173e-01 7.269033e-01 -5.143863e-01
1.770000e+10 7.250141e-01 -5.157381e-01 2.167122e-01 2.890390e-01 2.167119e-01 2.890376e-01 7.243000e-01 -5.162863e-01
1.775000e+10 7.224002e-01 -5.176262e-01 2.191460e-01 2.902450e-01 2.191457e-01 2.902436e-01 7.216838e-01 -5.181728e-01
1.780000e+10 7.197733e-01 -5.195006e-01 2.215915e-01 2.914368e-01 2.215911e-01 2.914353e-01 7.190546e-01 -5.200456e-01
1.785000e+10 7.171334e-01 -5.213613e-01 2.240486e-01 2.926141e-01 2.240482e-01 2.926127e-01 7.164124e-01 -5.219048e-01
1.790000e+10 7.144803e-01 -5.232082e-01 2.265173e-01 2.937770e-01 2.265169e-01 2.937756e-01 7.137570e-01 -5.237500e-01
1.795000e+10 7.118139e-01 -5.250411e-01 2.289978e-01 2.949253e-01 2.289974e-01 2.949239e-01 7.110884e-01 -5.255813e-01
1.800000e+10 7.091343e-01 -5.268599e-01 2.314900e-01 2.960589e-01 2.314896e-01 2.960575e-01 7.084066e-01 -5.273984e-01
1.805000e+10 7.064414e-01 -5.286645e-01 2.339940e-01 2.971777e-01 2.339936e-01 2.971763e-01 7.057114e-01 -5.292013e-01
1.810000e+10 7.037350e-01 -5.304546e-01 2.365099e-01 2.982815e-01 2.365094e-01 2.982801e-01 7.030028e-01 -5.309898e-01
1.815000e+10 7.010152e-01 -5.322302e-01 2.390376e-01 2.993703e-01 2.390372e-01 2.993689e-01 7.002808e-01 -5.327637e-01
1.820000e+10 6.982818e-01 -5.339911e-01 2.415772e-01 3.004438e-01 2.415768e-01 3.004424e-01 6.975452e-01 -5.345228e-01
1.825000e+10 6.955348e-01 -5.357372e-01 2.441289e-01 3.015020e-01 2.441284e-01 3.015007e-01 6.947960e-01 -5.362671e-01
1.830000e+10 6.927741e-01 -5.374682e-01 2.466925e-01 3.025448e-01 2.466920e-01 3.025434e-01 6.920331e-01 -5.379964e-01
1.835000e+10 6.899996e-01 -5.391840e-01 2.492681e-01 3.035719e-01 2.492676e-01 3.035705e-01 6.892566e-01 -5.397103e-01
1.840000e+10 6.872114e-01 -5.408843e-01 2.518559e-01 3.045831e-01 2.518554e-01 3.045818e-01 6.864662e-01 -5.414089e-01
1.845000e+10 6.844093e-01 -5.425691e-01 2.544557e-01 3.055785e-01 2.544552e-01 3.055771e-01 6.836620e-01 -5.430918e-01
1.850000e+10 6.815932e-01 -5.442381e-01 2.570677e-01 3.065577e-01 2.570671e-01 3.065563e-01 6.808439e-01 -5.447589e-01
1.855000e+10 6.787632e-01 -5.458910e-01 2.596918e-01 3.075206e-01 2.596913e-01 3.075192e-01 6.780118e-01 -5.464099e-01
1.860000e+10 6.759192e-01 -5.475277e-01 2.623282e-01 3.084670e-01 2.623276e-01 3.084656e-01 6.751657e-01 -5.480447e-01
1.865000e+10 6.730611e-01 -5.491479e-01 2.649768e-01 3.093967e-01 2.649762e-01 3.093954e-01 6.723056e-01 -5.496630e-01
1.870000e+10 6.701889e-01 -5.507515e-01 2.676377e-01 3.103096e-01 2.676371e-01 3.103083e-01 6.694313e-01 -5.512646e-01
1.875000e+10 6.673026e-01 -5.523381e-01 2.703108e-01 3.112054e-01 2.703102e-01 3.112041e-01 6.665430e-01 -5.528492e-01
1.880000e+10 6.644020e-01 -5.539075e-01 2.729962e-01 3.120839e-01 2.729956e-01 3.120826e-01 6.636404e-01 -5.544167e-01
1.885000e+10 6.614872e-01 -5.554595e-01 2.756940e-01 3.129450e-01 2.756933e-01 3.129436e-01 6.607237e-01 -5.559666e-01
1.890000e+10 6.585582e-01 -5.569938e-01 2.784041e-01 3.137883e-01 2.784034e-01 3.137870e-01 6.577927e-01 -5.574988e-01
1.895000e+10 6.556150e-01 -5.585101e-01 2.811265e-01 3.146137e-01 2.811258e-01 3.146124e-01 6.548475e-01 -5.590131e-01
1.900000e+10 6.526574e-01 -5.600081e-01 2.838612e-01 3.154209e-01 2.838605e-01 3.154196e-01 6.518880e-01 -5.605090e-01
1.905000e+10 6.496856e-01 -5.614876e-01 2.866083e-01 3.162097e-01 2.866076e-01 3.162084e-01 6.489142e-01 -5.619864e-01
1.910000e+10 6.466994e-01 -5.629483e-01 2.893677e-01 3.169798e-01 2.893670e-01 3.169785e-01 6.459262e-01 -5.634449e-01
1.915000e+10 6.436990e-01 -5.643898e-01 2.921395e-01 3.177310e-01 2.921387e-01 3.177297e-01 6.429239e-01 -5.648842e-01
1.920000e+10 6.406843e-01 -5.658118e-01 2.949235e-01 3.184630e-01 2.949227e-01 3.184617e-01 6.399074e-01 -5.663040e-01
1.925000e+10 6.376554e-01 -5.672141e-01 2.977199e-01 3.191756e-01 2.977191e-01 3.191743e-01 6.368766e-01 -5.677040e-01
1.930000e+10 6.346123e-01 -5.685962e-01 3.005284e-01 3.198684e-01 3.005276e-01 3.198671e-01 6.338316e-01 -5.690839e-01
1.935000e+10 6.315549e-01 -5.699579e-01 3.033493e-01 3.205412e-01 3.033484e-01 3.205399e-01 6.307724e-01 -5.704433e-01
1.940000e+10 6.284834e-01 -5.712988e-01 3.061822e-01 3.211937e-01 3.061814e-01 3.211925e-01 6.276991e-01 -5.717819e-01
1.945000e+10 6.253979e-01 -5.726185e-01 3.090274e-01 3.218257e-01 3.090265e-01 3.218244e-01 6.246118e-01 -5.730993e-01
1.950000e+10 6.222983e-01 -5.739168e-01 3.118845e-01 3.224367e-01 3.118836e-01 3.224354e-01 6.215104e-01 -5.743952e-01
1.955000e+10 6.191848e-01 -5.751931e-01 3.147538e-01 3.230265e-01 3.147528e-01 3.230252e-01 6.183951e-01 -5.756691e-01
1.960000e+10 6.160574e-01 -5.764473e-01 3.176349e-01 3.235948e-01 3.176339e-01 3.235935e-01 6.152660e-01 -5.769208e-01
1.965000e+10 6.129162e-01 -5.776787e-01 3.205279e-01 3.241413e-01 3.205269e-01 3.241400e-01 6.121231e-01 -5.781498e-01
1.970000e+10 6.097615e-01 -5.788872e-01 3.234326e-01 3.246655e-01 3.234316e-01 3.246643e-01 6.089666e-01 -5.793558e-01
1.975000e+10 6.065932e-01 -5.800722e-01 3.263490e-01 3.251673e-01 3.263480e-01 3.251660e-01 6.057966e-01 -5.805383e-01
1.980000e+10 6.034115e-01 -5.812334e-01 3.292770e-01 3.256462e-01 3.292760e-01 3.256449e-01 6.026133e-01 -5.816969e-01
1.985000e+10 6.002165e-01 -5.823704e-01 3.322164e-01 3.261019e-01 3.322153e-01 3.261006e-01 5.994167e-01 -5.828313e-01
1.990000e+10 5.970086e-01 -5.834827e-01 3.351671e-01 3.265341e-01 3.351660e-01 3.265328e-01 5.962071e-01 -5.839410e-01
1.995000e+10 5.937877e-01 -5.845700e-01 3.381289e-01 3.269423e-01 3.381278e-01 3.269410e-01 5.929846e-01 -5.850255e-01
2.000000e+10 5.905541e-01 -5.856318e-01 3.411018e-01 3.273263e-01 3.411006e-01 3.273250e-01 5.897494e-01 -5.860846e-01
