#   Hz   S  RI   R   50
!
0.000000e+00 4.347396e-02 0.000000e+00 9.545149e-01 0.000000e+00 9.544391e-01 0.000000e+00 4.341051e-02 0.000000e+00
3.500000e+07 4.356094e-02 8.908720e-03 9.543911e-01 -1.039175e-02 9.543161e-01 -1.038003e-02 4.349803e-02 8.914655e-03
7.000000e+07 4.382184e-02 1.781347e-02 9.540200e-01 -2.077283e-02 9.539478e-01 -2.074966e-02 4.376053e-02 1.782522e-02
1.050000e+08 4.425653e-02 2.671029e-02 9.534029e-01 -3.113263e-02 9.533351e-01 -3.109860e-02 4.419787e-02 2.672763e-02
1.400000e+08 4.486479e-02 3.559522e-02 9.525417e-01 -4.146074e-02 9.524800e-01 -4.141668e-02 4.480979e-02 3.561778e-02
1.750000e+08 4.564629e-02 4.446429e-02 9.514392e-01 -5.174701e-02 9.513850e-01 -5.169399e-02 4.559594e-02 4.449163e-02
2.100000e+08 4.660064e-02 5.331357e-02 9.500988e-01 -6.198159e-02 9.500535e-01 -6.192091e-02 4.655586e-02 5.334510e-02
2.450000e+08 4.772737e-02 6.213910e-02 9.485248e-01 -7.215508e-02 9.484892e-01 -7.208821e-02 4.768902e-02 6.217416e-02
2.800000e+08 4.902590e-02 7.093695e-02 9.467217e-01 -8.225852e-02 9.466968e-01 -8.218706e-02 4.899476e-02 7.097477e-02
3.150000e+08 5.049558e-02 7.970320e-02 9.446949e-01 -9.228346e-02 9.446812e-01 -9.220913e-02 5.047236e-02 7.974291e-02
3.500000e+08 5.213567e-02 8.843393e-02 9.424502e-01 -1.022220e-01 9.424479e-01 -1.021466e-01 5.212098e-02 8.847460e-02
3.850000e+08 5.394537e-02 9.712521e-02 9.399937e-01 -1.120670e-01 9.400028e-01 -1.119922e-01 5.393970e-02 9.716582e-02
4.200000e+08 5.592378e-02 1.057732e-01 9.373320e-01 -1.218117e-01 9.373521e-01 -1.217393e-01 5.592751e-02 1.058126e-01
4.550000e+08 5.806992e-02 1.143738e-01 9.344716e-01 -1.314501e-01 9.345023e-01 -1.313818e-01 5.808331e-02 1.144111e-01
4.900000e+08 6.038272e-02 1.229234e-01 9.314197e-01 -1.409769e-01 9.314601e-01 -1.409141e-01 6.040591e-02 1.229572e-01
5.250000e+08 6.286105e-02 1.314178e-01 9.281832e-01 -1.503872e-01 9.282323e-01 -1.503314e-01 6.289403e-02 1.314470e-01
5.600000e+08 6.550365e-02 1.398532e-01 9.247691e-01 -1.596771e-01 9.248257e-01 -1.596294e-01 6.554629e-02 1.398766e-01
5.950000e+08 6.830921e-02 1.482258e-01 9.211846e-01 -1.688429e-01 9.212473e-01 -1.688044e-01 6.836122e-02 1.482422e-01
6.300000e+08 7.127629e-02 1.565314e-01 9.174365e-01 -1.778817e-01 9.175038e-01 -1.778531e-01 7.133725e-02 1.565397e-01
6.650000e+08 7.440335e-02 1.647663e-01 9.135317e-01 -1.867911e-01 9.136020e-01 -1.867729e-01 7.447270e-02 1.647654e-01
7.000000e+08 7.768875e-02 1.729264e-01 9.094768e-01 -1.955691e-01 9.095485e-01 -1.955615e-01 7.776578e-02 1.729152e-01
7.350000e+08 8.113072e-02 1.810079e-01 9.052781e-01 -2.042142e-01 9.053496e-01 -2.042172e-01 8.121461e-02 1.809854e-01
7.700000e+08 8.472737e-02 1.890066e-01 9.009420e-01 -2.127252e-01 9.010116e-01 -2.127386e-01 8.481716e-02 1.889720e-01
8.050000e+08 8.847666e-02 1.969188e-01 8.964741e-01 -2.211014e-01 8.965404e-01 -2.211247e-01 8.857129e-02 1.968712e-01
8.400000e+08 9.237642e-02 2.047404e-01 8.918801e-01 -2.293422e-01 8.919416e-01 -2.293747e-01 9.247472e-02 2.046792e-01
8.750000e+08 9.642431e-02 2.124674e-01 8.871653e-01 -2.374474e-01 8.872208e-01 -2.374882e-01 9.652503e-02 2.123922e-01
9.100000e+08 1.006178e-01 2.200960e-01 8.823347e-01 -2.454170e-01 8.823830e-01 -2.454650e-01 1.007197e-01 2.200063e-01
9.450000e+08 1.049544e-01 2.276223e-01 8.773929e-01 -2.532509e-01 8.774332e-01 -2.533049e-01 1.050559e-01 2.275179e-01
9.800000e+08 1.094310e-01 2.350424e-01 8.723444e-01 -2.609495e-01 8.723758e-01 -2.610081e-01 1.095309e-01 2.349232e-01
1.015000e+09 1.140448e-01 2.423524e-01 8.671932e-01 -2.685129e-01 8.672154e-01 -2.685748e-01 1.141416e-01 2.422187e-01
1.050000e+09 1.187924e-01 2.495488e-01 8.619433e-01 -2.759414e-01 8.619558e-01 -2.760051e-01 1.188847e-01 2.494008e-01
1.085000e+09 1.236706e-01 2.566278e-01 8.565982e-01 -2.832353e-01 8.566011e-01 -2.832994e-01 1.237570e-01 2.564660e-01
1.120000e+09 1.286757e-01 2.635860e-01 8.511614e-01 -2.903949e-01 8.511548e-01 -2.904579e-01 1.287550e-01 2.634110e-01
1.155000e+09 1.338040e-01 2.704198e-01 8.456362e-01 -2.974203e-01 8.456205e-01 -2.974810e-01 1.338748e-01 2.702324e-01
1.190000e+09 1.390514e-01 2.771261e-01 8.400256e-01 -3.043118e-01 8.400014e-01 -3.043688e-01 1.391126e-01 2.769273e-01
1.225000e+09 1.444138e-01 2.837016e-01 8.343327e-01 -3.110695e-01 8.343006e-01 -3.111215e-01 1.444644e-01 2.834925e-01
1.260000e+09 1.498869e-01 2.901436e-01 8.285602e-01 -3.176933e-01 8.285212e-01 -3.177394e-01 1.499261e-01 2.899254e-01
1.295000e+09 1.554662e-01 2.964491e-01 8.227110e-01 -3.241832e-01 8.226662e-01 -3.242225e-01 1.554932e-01 2.962231e-01
1.330000e+09 1.611471e-01 3.026158e-01 8.167880e-01 -3.305390e-01 8.167383e-01 -3.305708e-01 1.611613e-01 3.023834e-01
1.365000e+09 1.669248e-01 3.086412e-01 8.107937e-01 -3.367606e-01 8.107405e-01 -3.367843e-01 1.669258e-01 3.084039e-01
1.400000e+09 1.727944e-01 3.145232e-01 8.047310e-01 -3.428476e-01 8.046755e-01 -3.428629e-01 1.727821e-01 3.142827e-01
1.435000e+09 1.787509e-01 3.202602e-01 7.986026e-01 -3.487998e-01 7.985461e-01 -3.488066e-01 1.787252e-01 3.200178e-01
1.470000e+09 1.847892e-01 3.258505e-01 7.924113e-01 -3.546167e-01 7.923552e-01 -3.546151e-01 1.847503e-01 3.256078e-01
1.505000e+09 1.909041e-01 3.312927e-01 7.861600e-01 -3.602981e-01 7.861054e-01 -3.602882e-01 1.908524e-01 3.310513e-01
1.540000e+09 1.970906e-01 3.365861e-01 7.798516e-01 -3.658435e-01 7.797997e-01 -3.658258e-01 1.970266e-01 3.363472e-01
1.575000e+09 2.033433e-01 3.417297e-01 7.734891e-01 -3.712526e-01 7.734409e-01 -3.712277e-01 2.032679e-01 3.414948e-01
1.610000e+09 2.096571e-01 3.467232e-01 7.670755e-01 -3.765249e-01 7.670321e-01 -3.764936e-01 2.095711e-01 3.464935e-01
1.645000e+09 2.160269e-01 3.515664e-01 7.606140e-01 -3.816604e-01 7.605761e-01 -3.816233e-01 2.159314e-01 3.513431e-01
1.680000e+09 2.224475e-01 3.562594e-01 7.541076e-01 -3.866586e-01 7.540760e-01 -3.866169e-01 2.223437e-01 3.560434e-01
1.715000e+09 2.289139e-01 3.608027e-01 7.475598e-01 -3.915196e-01 7.475350e-01 -3.914742e-01 2.288031e-01 3.605948e-01
1.750000e+09 2.354213e-01 3.651969e-01 7.409737e-01 -3.962432e-01 7.409560e-01 -3.961952e-01 2.353048e-01 3.649976e-01
1.785000e+09 2.419647e-01 3.694428e-01 7.343527e-01 -4.008295e-01 7.343425e-01 -4.007801e-01 2.418440e-01 3.692526e-01
1.820000e+09 2.485396e-01 3.735416e-01 7.277003e-01 -4.052788e-01 7.276975e-01 -4.052290e-01 2.484162e-01 3.733608e-01
1.855000e+09 2.551415e-01 3.774948e-01 7.210197e-01 -4.095914e-01 7.210242e-01 -4.095423e-01 2.550169e-01 3.773233e-01
1.890000e+09 2.617661e-01 3.813037e-01 7.143145e-01 -4.137677e-01 7.143260e-01 -4.137204e-01 2.616417e-01 3.811415e-01
1.925000e+09 2.684091e-01 3.849702e-01 7.075880e-01 -4.178083e-01 7.076062e-01 -4.177638e-01 2.682865e-01 3.848168e-01
1.960000e+09 2.750668e-01 3.884962e-01 7.008437e-01 -4.217140e-01 7.008679e-01 -4.216731e-01 2.749472e-01 3.883511e-01
1.995000e+09 2.817354e-01 3.918837e-01 6.940847e-01 -4.254858e-01 6.941143e-01 -4.254493e-01 2.816201e-01 3.917461e-01
2.030000e+09 2.884113e-01 3.951348e-01 6.873146e-01 -4.291245e-01 6.873488e-01 -4.290932e-01 2.883015e-01 3.950039e-01
2.065000e+09 2.950914e-01 3.982518e-01 6.805364e-01 -4.326315e-01 6.805744e-01 -4.326058e-01 2.949881e-01 3.981266e-01
2.100000e+09 3.017725e-01 4.012369e-01 6.737534e-01 -4.360080e-01 6.737942e-01 -4.359884e-01 3.016765e-01 4.011163e-01
2.135000e+09 3.084517e-01 4.040927e-01 6.669685e-01 -4.392554e-01 6.670113e-01 -4.392422e-01 3.083638e-01 4.039754e-01
2.170000e+09 3.151265e-01 4.068214e-01 6.601848e-01 -4.423754e-01 6.602285e-01 -4.423687e-01 3.150471e-01 4.067061e-01
2.205000e+09 3.217943e-01 4.094255e-01 6.534050e-01 -4.453695e-01 6.534488e-01 -4.453693e-01 3.217239e-01 4.093108e-01
2.240000e+09 3.284530e-01 4.119074e-01 6.466320e-01 -4.482396e-01 6.466749e-01 -4.482457e-01 3.283916e-01 4.117920e-01
2.275000e+09 3.351005e-01 4.142695e-01 6.398683e-01 -4.509874e-01 6.399094e-01 -4.509995e-01 3.350481e-01 4.141519e-01
2.310000e+09 3.417349e-01 4.165141e-01 6.331164e-01 -4.536149e-01 6.331549e-01 -4.536327e-01 3.416913e-01 4.163930e-01
2.345000e+09 3.483545e-01 4.186435e-01 6.263786e-01 -4.561240e-01 6.264138e-01 -4.561469e-01 3.483193e-01 4.185176e-01
2.380000e+09 3.549577e-01 4.206599e-01 6.196571e-01 -4.585167e-01 6.196883e-01 -4.585442e-01 3.549303e-01 4.205280e-01
2.415000e+09 3.615431e-01 4.225655e-01 6.129540e-01 -4.607951e-01 6.129807e-01 -4.608265e-01 3.615228e-01 4.224265e-01
2.450000e+09 3.681094e-01 4.243624e-01 6.062713e-01 -4.629613e-01 6.062930e-01 -4.629958e-01 3.680952e-01 4.242153e-01
2.485000e+09 3.746554e-01 4.260526e-01 5.996107e-01 -4.650173e-01 5.996271e-01 -4.650542e-01 3.746464e-01 4.258965e-01
2.520000e+09 3.811799e-01 4.276380e-01 5.929739e-01 -4.669651e-01 5.929848e-01 -4.670036e-01 3.811750e-01 4.274721e-01
2.555000e+09 3.876819e-01 4.291204e-01 5.863625e-01 -4.688069e-01 5.863679e-01 -4.688462e-01 3.876799e-01 4.289443e-01
2.590000e+09 3.941604e-01 4.305016e-01 5.797780e-01 -4.705447e-01 5.797778e-01 -4.705840e-01 3.941601e-01 4.303148e-01
2.625000e+09 4.006144e-01 4.317833e-01 5.732217e-01 -4.721806e-01 5.732160e-01 -4.722190e-01 4.006146e-01 4.315855e-01
2.660000e+09 4.070432e-01 4.329669e-01 5.666948e-01 -4.737164e-01 5.666840e-01 -4.737532e-01 4.070424e-01 4.327582e-01
2.695000e+09 4.134457e-01 4.340541e-01 5.601985e-01 -4.751542e-01 5.601829e-01 -4.751888e-01 4.134428e-01 4.338345e-01
2.730000e+09 4.198212e-01 4.350463e-01 5.537339e-01 -4.764958e-01 5.537139e-01 -4.765275e-01 4.198149e-01 4.348161e-01
2.765000e+09 4.261687e-01 4.359447e-01 5.473019e-01 -4.777432e-01 5.472781e-01 -4.777715e-01 4.261579e-01 4.357045e-01
2.800000e+09 4.324874e-01 4.367508e-01 5.409036e-01 -4.788981e-01 5.408765e-01 -4.789226e-01 4.324709e-01 4.365011e-01
2.835000e+09 4.387765e-01 4.374659e-01 5.345397e-01 -4.799624e-01 5.345099e-01 -4.799826e-01 4.387533e-01 4.372074e-01
2.870000e+09 4.450349e-01 4.380911e-01 5.282110e-01 -4.809376e-01 5.281793e-01 -4.809533e-01 4.450042e-01 4.378248e-01
2.905000e+09 4.512619e-01 4.386277e-01 5.219185e-01 -4.818256e-01 5.218855e-01 -4.818367e-01 4.512229e-01 4.383545e-01
2.940000e+09 4.574565e-01 4.390769e-01 5.156627e-01 -4.826279e-01 5.156291e-01 -4.826343e-01 4.574086e-01 4.387978e-01
2.975000e+09 4.636177e-01 4.394398e-01 5.094444e-01 -4.833462e-01 5.094109e-01 -4.833478e-01 4.635605e-01 4.391560e-01
3.010000e+09 4.697446e-01 4.397176e-01 5.032642e-01 -4.839819e-01 5.032315e-01 -4.839790e-01 4.696777e-01 4.394303e-01
3.045000e+09 4.758362e-01 4.399116e-01 4.971229e-01 -4.845367e-01 4.970916e-01 -4.845294e-01 4.757595e-01 4.396219e-01
3.080000e+09 4.818915e-01 4.400230e-01 4.910210e-01 -4.850119e-01 4.909918e-01 -4.850005e-01 4.818050e-01 4.397321e-01
3.115000e+09 4.879096e-01 4.400529e-01 4.849593e-01 -4.854090e-01 4.849325e-01 -4.853940e-01 4.878134e-01 4.397621e-01
3.150000e+09 4.938892e-01 4.400026e-01 4.789381e-01 -4.857295e-01 4.789144e-01 -4.857113e-01 4.937838e-01 4.397130e-01
3.185000e+09 4.998296e-01 4.398735e-01 4.729583e-01 -4.859747e-01 4.729379e-01 -4.859538e-01 4.997153e-01 4.395861e-01
3.220000e+09 5.057296e-01 4.396668e-01 4.670203e-01 -4.861461e-01 4.670036e-01 -4.861230e-01 5.056071e-01 4.393827e-01
3.255000e+09 5.115883e-01 4.393840e-01 4.611248e-01 -4.862450e-01 4.611120e-01 -4.862204e-01 5.114583e-01 4.391040e-01
3.290000e+09 5.174046e-01 4.390264e-01 4.552722e-01 -4.862728e-01 4.552635e-01 -4.862472e-01 5.172680e-01 4.387513e-01
3.325000e+09 5.231777e-01 4.385954e-01 4.494632e-01 -4.862308e-01 4.494587e-01 -4.862049e-01 5.230355e-01 4.383260e-01
3.360000e+09 5.289067e-01 4.380927e-01 4.436983e-01 -4.861205e-01 4.436978e-01 -4.860948e-01 5.287597e-01 4.378294e-01
3.395000e+09 5.345906e-01 4.375196e-01 4.379780e-01 -4.859432e-01 4.379815e-01 -4.859182e-01 5.344401e-01 4.372630e-01
3.430000e+09 5.402287e-01 4.368779e-01 4.323028e-01 -4.857002e-01 4.323102e-01 -4.856766e-01 5.400756e-01 4.366280e-01
3.465000e+09 5.458201e-01 4.361690e-01 4.266732e-01 -4.853929e-01 4.266841e-01 -4.853713e-01 5.456657e-01 4.359261e-01
3.500000e+09 5.513641e-01 4.353947e-01 4.210897e-01 -4.850228e-01 4.211039e-01 -4.850034e-01 5.512095e-01 4.351586e-01
3.535000e+09 5.568602e-01 4.345566e-01 4.155527e-01 -4.845911e-01 4.155697e-01 -4.845745e-01 5.567065e-01 4.343272e-01
3.570000e+09 5.623077e-01 4.336564e-01 4.100627e-01 -4.840992e-01 4.100821e-01 -4.840858e-01 5.621559e-01 4.334333e-01
3.605000e+09 5.677061e-01 4.326958e-01 4.046200e-01 -4.835486e-01 4.046413e-01 -4.835386e-01 5.675572e-01 4.324785e-01
3.640000e+09 5.730550e-01 4.316765e-01 3.992249e-01 -4.829406e-01 3.992477e-01 -4.829342e-01 5.729100e-01 4.314644e-01
3.675000e+09 5.783540e-01 4.306001e-01 3.938779e-01 -4.822767e-01 3.939015e-01 -4.822740e-01 5.782137e-01 4.303926e-01
3.710000e+09 5.836029e-01 4.294686e-01 3.885792e-01 -4.815582e-01 3.886032e-01 -4.815593e-01 5.834679e-01 4.292648e-01
3.745000e+09 5.888014e-01 4.282834e-01 3.833289e-01 -4.807865e-01 3.833528e-01 -4.807915e-01 5.886723e-01 4.280824e-01
3.780000e+09 5.939493e-01 4.270463e-01 3.781275e-01 -4.799630e-01 3.781506e-01 -4.799717e-01 5.938268e-01 4.268472e-01
3.815000e+09 5.990467e-01 4.257589e-01 3.729749e-01 -4.790892e-01 3.729969e-01 -4.791014e-01 5.989310e-01 4.255607e-01
3.850000e+09 6.040935e-01 4.244229e-01 3.678714e-01 -4.781662e-01 3.678917e-01 -4.781818e-01 6.039848e-01 4.242245e-01
3.885000e+09 6.090898e-01 4.230399e-01 3.628170e-01 -4.771957e-01 3.628353e-01 -4.772144e-01 6.089882e-01 4.228403e-01
3.920000e+09 6.140358e-01 4.216113e-01 3.578117e-01 -4.761788e-01 3.578276e-01 -4.762002e-01 6.139412e-01 4.214094e-01
3.955000e+09 6.189316e-01 4.201386e-01 3.528556e-01 -4.751169e-01 3.528688e-01 -4.751407e-01 6.188438e-01 4.199335e-01
3.990000e+09 6.237775e-01 4.186234e-01 3.479487e-01 -4.740114e-01 3.479588e-01 -4.740371e-01 6.236962e-01 4.184140e-01
4.025000e+09 6.285738e-01 4.170669e-01 3.430908e-01 -4.728635e-01 3.430977e-01 -4.728907e-01 6.284985e-01 4.168524e-01
4.060000e+09 6.333208e-01 4.154706e-01 3.382818e-01 -4.716744e-01 3.382854e-01 -4.717028e-01 6.332509e-01 4.152500e-01
4.095000e+09 6.380189e-01 4.138355e-01 3.335217e-01 -4.704455e-01 3.335218e-01 -4.704744e-01 6.379538e-01 4.136083e-01
4.130000e+09 6.426685e-01 4.121631e-01 3.288101e-01 -4.691778e-01 3.288068e-01 -4.692069e-01 6.426074e-01 4.119284e-01
4.165000e+09 6.472700e-01 4.104543e-01 3.241470e-01 -4.678727e-01 3.241404e-01 -4.679014e-01 6.472120e-01 4.102118e-01
4.200000e+09 6.518239e-01 4.087104e-01 3.195321e-01 -4.665311e-01 3.195222e-01 -4.665591e-01 6.517682e-01 4.084595e-01
4.235000e+09 6.563306e-01 4.069322e-01 3.149651e-01 -4.651543e-01 3.149521e-01 -4.651811e-01 6.562762e-01 4.066726e-01
4.270000e+09 6.607905e-01 4.051208e-01 3.104458e-01 -4.637432e-01 3.104299e-01 -4.637685e-01 6.607365e-01 4.048524e-01
4.305000e+09 6.652041e-01 4.032770e-01 3.059738e-01 -4.622989e-01 3.059554e-01 -4.623223e-01 6.651495e-01 4.029998e-01
4.340000e+09 6.695719e-01 4.014017e-01 3.015488e-01 -4.608224e-01 3.015282e-01 -4.608436e-01 6.695157e-01 4.011158e-01
4.375000e+09 6.738943e-01 3.994957e-01 2.971706e-01 -4.593147e-01 2.971480e-01 -4.593335e-01 6.738356e-01 3.992012e-01
4.410000e+09 6.781716e-01 3.975598e-01 2.928388e-01 -4.577767e-01 2.928147e-01 -4.577928e-01 6.781096e-01 3.972571e-01
4.445000e+09 6.824044e-01 3.955945e-01 2.885529e-01 -4.562092e-01 2.885277e-01 -4.562225e-01 6.823381e-01 3.952841e-01
4.480000e+09 6.865930e-01 3.936007e-01 2.843128e-01 -4.546131e-01 2.842869e-01 -4.546235e-01 6.865217e-01 3.932831e-01
4.515000e+09 6.907376e-01 3.915790e-01 2.801181e-01 -4.529892e-01 2.800919e-01 -4.529967e-01 6.906607e-01 3.912547e-01
4.550000e+09 6.948388e-01 3.895298e-01 2.759683e-01 -4.513383e-01 2.759423e-01 -4.513430e-01 6.947556e-01 3.891998e-01
4.585000e+09 6.988967e-01 3.874540e-01 2.718632e-01 -4.496611e-01 2.718377e-01 -4.496631e-01 6.988068e-01 3.871188e-01
4.620000e+09 7.029117e-01 3.853519e-01 2.678025e-01 -4.479585e-01 2.677779e-01 -4.479579e-01 7.028147e-01 3.850125e-01
4.655000e+09 7.068839e-01 3.832241e-01 2.637857e-01 -4.462310e-01 2.637624e-01 -4.462280e-01 7.067796e-01 3.828814e-01
4.690000e+09 7.108137e-01 3.810712e-01 2.598127e-01 -4.444794e-01 2.597909e-01 -4.444742e-01 7.107019e-01 3.807260e-01
4.725000e+09 7.147012e-01 3.788937e-01 2.558830e-01 -4.427044e-01 2.558630e-01 -4.426973e-01 7.145818e-01 3.785470e-01
4.760000e+09 7.185466e-01 3.766921e-01 2.519963e-01 -4.409065e-01 2.519785e-01 -4.408978e-01 7.184198e-01 3.763448e-01
4.795000e+09 7.223500e-01 3.744671e-01 2.481524e-01 -4.390864e-01 2.481369e-01 -4.390765e-01 7.222160e-01 3.741200e-01
4.830000e+09 7.261116e-01 3.722190e-01 2.443510e-01 -4.372446e-01 2.443379e-01 -4.372339e-01 7.259708e-01 3.718730e-01
4.865000e+09 7.298315e-01 3.699484e-01 2.405918e-01 -4.353819e-01 2.405812e-01 -4.353707e-01 7.296842e-01 3.696043e-01
4.900000e+09 7.335098e-01 3.676560e-01 2.368745e-01 -4.334988e-01 2.368664e-01 -4.334874e-01 7.333566e-01 3.673144e-01
4.935000e+09 7.371466e-01 3.653423e-01 2.331988e-01 -4.315958e-01 2.331933e-01 -4.315847e-01 7.369882e-01 3.650038e-01
4.970000e+09 7.407421e-01 3.630078e-01 2.295646e-01 -4.296736e-01 2.295615e-01 -4.296631e-01 7.405790e-01 3.626730e-01
5.005000e+09 7.442962e-01 3.606532e-01 2.259714e-01 -4.277327e-01 2.259708e-01 -4.277232e-01 7.441292e-01 3.603226e-01
5.040000e+09 7.478091e-01 3.582790e-01 2.224192e-01 -4.257736e-01 2.224208e-01 -4.257654e-01 7.476391e-01 3.579529e-01
5.075000e+09 7.512809e-01 3.558860e-01 2.189077e-01 -4.237970e-01 2.189112e-01 -4.237904e-01 7.511086e-01 3.555646e-01
5.110000e+09 7.547117e-01 3.534746e-01 2.154365e-01 -4.218033e-01 2.154418e-01 -4.217986e-01 7.545381e-01 3.531581e-01
5.145000e+09 7.581016e-01 3.510457e-01 2.120056e-01 -4.197931e-01 2.120123e-01 -4.197906e-01 7.579275e-01 3.507340e-01
5.180000e+09 7.614508e-01 3.485998e-01 2.086146e-01 -4.177670e-01 2.086224e-01 -4.177668e-01 7.612770e-01 3.482928e-01
5.215000e+09 7.647595e-01 3.461376e-01 2.052632e-01 -4.157256e-01 2.052719e-01 -4.157279e-01 7.645868e-01 3.458351e-01
5.250000e+09 7.680277e-01 3.436599e-01 2.019513e-01 -4.136693e-01 2.019605e-01 -4.136742e-01 7.678569e-01 3.433615e-01
5.285000e+09 7.712558e-01 3.411672e-01 1.986786e-01 -4.115987e-01 1.986880e-01 -4.116063e-01 7.710876e-01 3.408726e-01
5.320000e+09 7.744438e-01 3.386602e-01 1.954449e-01 -4.095144e-01 1.954540e-01 -4.095246e-01 7.742789e-01 3.383689e-01
5.355000e+09 7.775922e-01 3.361397e-01 1.922498e-01 -4.074169e-01 1.922583e-01 -4.074297e-01 7.774311e-01 3.358511e-01
5.390000e+09 7.807011e-01 3.336063e-01 1.890931e-01 -4.053067e-01 1.891007e-01 -4.053221e-01 7.805444e-01 3.333197e-01
5.425000e+09 7.837708e-01 3.310607e-01 1.859745e-01 -4.031844e-01 1.859809e-01 -4.032022e-01 7.836189e-01 3.307753e-01
5.460000e+09 7.868017e-01 3.285035e-01 1.828938e-01 -4.010505e-01 1.828987e-01 -4.010705e-01 7.866549e-01 3.282187e-01
5.495000e+09 7.897941e-01 3.259354e-01 1.798506e-01 -3.989055e-01 1.798536e-01 -3.989275e-01 7.896526e-01 3.256503e-01
5.530000e+09 7.927484e-01 3.233569e-01 1.768446e-01 -3.967499e-01 1.768456e-01 -3.967737e-01 7.926123e-01 3.230708e-01
5.565000e+09 7.956650e-01 3.207688e-01 1.738755e-01 -3.945843e-01 1.738743e-01 -3.946096e-01 7.955342e-01 3.204807e-01
5.600000e+09 7.985443e-01 3.181715e-01 1.709430e-01 -3.924090e-01 1.709393e-01 -3.924355e-01 7.984188e-01 3.178807e-01
5.635000e+09 8.013868e-01 3.155656e-01 1.680467e-01 -3.902246e-01 1.680405e-01 -3.902520e-01 8.012662e-01 3.152714e-01
5.670000e+09 8.041928e-01 3.129517e-01 1.651863e-01 -3.880316e-01 1.651775e-01 -3.880596e-01 8.040769e-01 3.126533e-01
5.705000e+09 8.069629e-01 3.103302e-01 1.623615e-01 -3.858303e-01 1.623500e-01 -3.858586e-01 8.068513e-01 3.100269e-01
5.740000e+09 8.096975e-01 3.077016e-01 1.595718e-01 -3.836213e-01 1.595577e-01 -3.836495e-01 8.095897e-01 3.073928e-01
5.775000e+09 8.123972e-01 3.050664e-01 1.568169e-01 -3.814049e-01 1.568003e-01 -3.814327e-01 8.122925e-01 3.047515e-01
5.810000e+09 8.150623e-01 3.024249e-01 1.540965e-01 -3.791816e-01 1.540774e-01 -3.792087e-01 8.149601e-01 3.021035e-01
5.845000e+09 8.176934e-01 2.997775e-01 1.514102e-01 -3.769517e-01 1.513887e-01 -3.769778e-01 8.175931e-01 2.994492e-01
5.880000e+09 8.202910e-01 2.971245e-01 1.487575e-01 -3.747157e-01 1.487339e-01 -3.747405e-01 8.201917e-01 2.967890e-01
5.915000e+09 8.228555e-01 2.944663e-01 1.461382e-01 -3.724737e-01 1.461126e-01 -3.724971e-01 8.227566e-01 2.941235e-01
5.950000e+09 8.253875e-01 2.918031e-01 1.435518e-01 -3.702263e-01 1.435245e-01 -3.702480e-01 8.252881e-01 2.914529e-01
5.985000e+09 8.278873e-01 2.891352e-01 1.409979e-01 -3.679737e-01 1.409692e-01 -3.679935e-01 8.277866e-01 2.887776e-01
6.020000e+09 8.303555e-01 2.864629e-01 1.384762e-01 -3.657162e-01 1.384463e-01 -3.657339e-01 8.302527e-01 2.860979e-01
6.055000e+09 8.327925e-01 2.837862e-01 1.359864e-01 -3.634541e-01 1.359555e-01 -3.634697e-01 8.326869e-01 2.834142e-01
6.090000e+09 8.351986e-01 2.811054e-01 1.335279e-01 -3.611877e-01 1.334965e-01 -3.612011e-01 8.350895e-01 2.807266e-01
6.125000e+09 8.375743e-01 2.784206e-01 1.311005e-01 -3.589171e-01 1.310689e-01 -3.589284e-01 8.374610e-01 2.780355e-01
6.160000e+09 8.399200e-01 2.757319e-01 1.287039e-01 -3.566427e-01 1.286723e-01 -3.566519e-01 8.398019e-01 2.753411e-01
6.195000e+09 8.422359e-01 2.730396e-01 1.263376e-01 -3.543647e-01 1.263064e-01 -3.543718e-01 8.421125e-01 2.726435e-01
6.230000e+09 8.445226e-01 2.703436e-01 1.240014e-01 -3.520833e-01 1.239708e-01 -3.520884e-01 8.443933e-01 2.699430e-01
6.265000e+09 8.467801e-01 2.676441e-01 1.216949e-01 -3.497987e-01 1.216652e-01 -3.498020e-01 8.466448e-01 2.672396e-01
6.300000e+09 8.490089e-01 2.649413e-01 1.194178e-01 -3.475110e-01 1.193892e-01 -3.475127e-01 8.488671e-01 2.645336e-01
6.335000e+09 8.512093e-01 2.622350e-01 1.171698e-01 -3.452205e-01 1.171425e-01 -3.452208e-01 8.510608e-01 2.618249e-01
6.370000e+09 8.533813e-01 2.595256e-01 1.149505e-01 -3.429273e-01 1.149248e-01 -3.429264e-01 8.532262e-01 2.591139e-01
6.405000e+09 8.555253e-01 2.568129e-01 1.127598e-01 -3.406316e-01 1.127357e-01 -3.406298e-01 8.553636e-01 2.564004e-01
6.440000e+09 8.576415e-01 2.540973e-01 1.105973e-01 -3.383336e-01 1.105750e-01 -3.383312e-01 8.574733e-01 2.536846e-01
6.475000e+09 8.597301e-01 2.513786e-01 1.084628e-01 -3.360334e-01 1.084423e-01 -3.360307e-01 8.595555e-01 2.509667e-01
6.510000e+09 8.617911e-01 2.486572e-01 1.063559e-01 -3.337311e-01 1.063373e-01 -3.337284e-01 8.616106e-01 2.482466e-01
6.545000e+09 8.638249e-01 2.459330e-01 1.042766e-01 -3.314270e-01 1.042598e-01 -3.314245e-01 8.636387e-01 2.455244e-01
6.580000e+09 8.658314e-01 2.432061e-01 1.022244e-01 -3.291212e-01 1.022095e-01 -3.291192e-01 8.656402e-01 2.428002e-01
6.615000e+09 8.678109e-01 2.404769e-01 1.001993e-01 -3.268137e-01 1.001861e-01 -3.268127e-01 8.676151e-01 2.400741e-01
6.650000e+09 8.697634e-01 2.377453e-01 9.820094e-02 -3.245049e-01 9.818928e-02 -3.245050e-01 8.695638e-01 2.373461e-01
6.685000e+09 8.716892e-01 2.350116e-01 9.622913e-02 -3.221948e-01 9.621888e-02 -3.221962e-01 8.714863e-01 2.346164e-01
6.720000e+09 8.735882e-01 2.322760e-01 9.428366e-02 -3.198836e-01 9.427464e-02 -3.198866e-01 8.733829e-01 2.318850e-01
6.755000e+09 8.754607e-01 2.295387e-01 9.236434e-02 -3.175715e-01 9.235631e-02 -3.175763e-01 8.752536e-01 2.291521e-01
6.790000e+09 8.773067e-01 2.267998e-01 9.047095e-02 -3.152586e-01 9.046367e-02 -3.152653e-01 8.770986e-01 2.264176e-01
6.825000e+09 8.791264e-01 2.240595e-01 8.860329e-02 -3.129450e-01 8.859650e-02 -3.129538e-01 8.789181e-01 2.236819e-01
6.860000e+09 8.809199e-01 2.213183e-01 8.676118e-02 -3.106310e-01 8.675458e-02 -3.106420e-01 8.807121e-01 2.209449e-01
6.895000e+09 8.826873e-01 2.185762e-01 8.494440e-02 -3.083168e-01 8.493770e-02 -3.083300e-01 8.824808e-01 2.182069e-01
6.930000e+09 8.844289e-01 2.158335e-01 8.315276e-02 -3.060024e-01 8.314567e-02 -3.060178e-01 8.842243e-01 2.154680e-01
6.965000e+09 8.861447e-01 2.130905e-01 8.138605e-02 -3.036881e-01 8.137827e-02 -3.037058e-01 8.859427e-01 2.127284e-01
7.000000e+09 8.878350e-01 2.103475e-01 7.964408e-02 -3.013741e-01 7.963532e-02 -3.013938e-01 8.876362e-01 2.099882e-01
7.035000e+09 8.894999e-01 2.076047e-01 7.792663e-02 -2.990604e-01 7.791662e-02 -2.990823e-01 8.893048e-01 2.072477e-01
7.070000e+09 8.911397e-01 2.048623e-01 7.623351e-02 -2.967474e-01 7.622197e-02 -2.967711e-01 8.909487e-01 2.045071e-01
7.105000e+09 8.927545e-01 2.021208e-01 7.456449e-02 -2.944352e-01 7.455119e-02 -2.944606e-01 8.925680e-01 2.017665e-01
7.140000e+09 8.943447e-01 1.993802e-01 7.291935e-02 -2.921239e-01 7.290408e-02 -2.921509e-01 8.941629e-01 1.990262e-01
7.175000e+09 8.959104e-01 1.966409e-01 7.129789e-02 -2.898137e-01 7.128045e-02 -2.898420e-01 8.957335e-01 1.962865e-01
7.210000e+09 8.974520e-01 1.939032e-01 6.969986e-02 -2.875049e-01 6.968010e-02 -2.875342e-01 8.972800e-01 1.935475e-01
7.245000e+09 8.989697e-01 1.911672e-01 6.812504e-02 -2.851975e-01 6.810285e-02 -2.852275e-01 8.988026e-01 1.908095e-01
7.280000e+09 9.004639e-01 1.884331e-01 6.657319e-02 -2.828917e-01 6.654849e-02 -2.829223e-01 9.003015e-01 1.880727e-01
7.315000e+09 9.019347e-01 1.857013e-01 6.504408e-02 -2.805877e-01 6.501682e-02 -2.806185e-01 9.017769e-01 1.853373e-01
7.350000e+09 9.033826e-01 1.829718e-01 6.353746e-02 -2.782857e-01 6.350763e-02 -2.783163e-01 9.032289e-01 1.826037e-01
7.385000e+09 9.048079e-01 1.802448e-01 6.205309e-02 -2.759857e-01 6.202073e-02 -2.760159e-01 9.046580e-01 1.798719e-01
7.420000e+09 9.062109e-01 1.775206e-01 6.059071e-02 -2.736879e-01 6.055590e-02 -2.737175e-01 9.060642e-01 1.771423e-01
7.455000e+09 9.075919e-01 1.747992e-01 5.915007e-02 -2.713925e-01 5.911293e-02 -2.714211e-01 9.074479e-01 1.744150e-01
7.490000e+09 9.089514e-01 1.720808e-01 5.773093e-02 -2.690995e-01 5.769160e-02 -2.691269e-01 9.088092e-01 1.716902e-01
7.525000e+09 9.102895e-01 1.693654e-01 5.633304e-02 -2.668091e-01 5.629169e-02 -2.668350e-01 9.101486e-01 1.689682e-01
7.560000e+09 9.116066e-01 1.666532e-01 5.495613e-02 -2.645214e-01 5.491299e-02 -2.645456e-01 9.114663e-01 1.662490e-01
7.595000e+09 9.129031e-01 1.639441e-01 5.359996e-02 -2.622364e-01 5.355526e-02 -2.622588e-01 9.127626e-01 1.635329e-01
7.630000e+09 9.141793e-01 1.612383e-01 5.226428e-02 -2.599542e-01 5.221827e-02 -2.599746e-01 9.140378e-01 1.608199e-01
7.665000e+09 9.154355e-01 1.585357e-01 5.094885e-02 -2.576749e-01 5.090181e-02 -2.576933e-01 9.152922e-01 1.581102e-01
7.700000e+09 9.166720e-01 1.558364e-01 4.965342e-02 -2.553986e-01 4.960563e-02 -2.554149e-01 9.165261e-01 1.554040e-01
7.735000e+09 9.178891e-01 1.531403e-01 4.837776e-02 -2.531254e-01 4.832952e-02 -2.531394e-01 9.177399e-01 1.527013e-01
7.770000e+09 9.190871e-01 1.504475e-01 4.712164e-02 -2.508552e-01 4.707323e-02 -2.508671e-01 9.189338e-01 1.500021e-01
7.805000e+09 9.202661e-01 1.477578e-01 4.588483e-02 -2.485881e-01 4.583655e-02 -2.485978e-01 9.201081e-01 1.473065e-01
7.840000e+09 9.214265e-01 1.450712e-01 4.466711e-02 -2.463241e-01 4.461924e-02 -2.463319e-01 9.212631e-01 1.446147e-01
7.875000e+09 9.225684e-01 1.423877e-01 4.346828e-02 -2.440633e-01 4.342109e-02 -2.440692e-01 9.223992e-01 1.419265e-01
7.910000e+09 9.236922e-01 1.397073e-01 4.228813e-02 -2.418057e-01 4.224186e-02 -2.418098e-01 9.235166e-01 1.392419e-01
7.945000e+09 9.247978e-01 1.370297e-01 4.112646e-02 -2.395513e-01 4.108134e-02 -2.395539e-01 9.246156e-01 1.365611e-01
7.980000e+09 9.258856e-01 1.343551e-01 3.998310e-02 -2.373001e-01 3.993932e-02 -2.373014e-01 9.256964e-01 1.338839e-01
8.015000e+09 9.269556e-01 1.316833e-01 3.885786e-02 -2.350522e-01 3.881559e-02 -2.350524e-01 9.267594e-01 1.312104e-01
8.050000e+09 9.280081e-01 1.290142e-01 3.775057e-02 -2.328074e-01 3.770994e-02 -2.328068e-01 9.278046e-01 1.285404e-01
8.085000e+09 9.290430e-01 1.263478e-01 3.666108e-02 -2.305659e-01 3.662217e-02 -2.305648e-01 9.288324e-01 1.258739e-01
8.120000e+09 9.300605e-01 1.236841e-01 3.558924e-02 -2.283277e-01 3.555211e-02 -2.283264e-01 9.298430e-01 1.232109e-01
8.155000e+09 9.310606e-01 1.210229e-01 3.453489e-02 -2.260927e-01 3.449955e-02 -2.260915e-01 9.308364e-01 1.205512e-01
8.190000e+09 9.320435e-01 1.183644e-01 3.349790e-02 -2.238610e-01 3.346433e-02 -2.238601e-01 9.318130e-01 1.178949e-01
8.225000e+09 9.330092e-01 1.157084e-01 3.247815e-02 -2.216325e-01 3.244627e-02 -2.216323e-01 9.327728e-01 1.152419e-01
8.260000e+09 9.339577e-01 1.130549e-01 3.147551e-02 -2.194074e-01 3.144522e-02 -2.194082e-01 9.337160e-01 1.125920e-01
8.295000e+09 9.348890e-01 1.104040e-01 3.048987e-02 -2.171855e-01 3.046101e-02 -2.171875e-01 9.346426e-01 1.099452e-01
8.330000e+09 9.358033e-01 1.077556e-01 2.952110e-02 -2.149670e-01 2.949350e-02 -2.149705e-01 9.355529e-01 1.073015e-01
8.365000e+09 9.367004e-01 1.051099e-01 2.856911e-02 -2.127518e-01 2.854255e-02 -2.127571e-01 9.364468e-01 1.046608e-01
8.400000e+09 9.375806e-01 1.024669e-01 2.763379e-02 -2.105401e-01 2.760803e-02 -2.105472e-01 9.373245e-01 1.020230e-01
8.435000e+09 9.384436e-01 9.982656e-02 2.671503e-02 -2.083318e-01 2.668980e-02 -2.083409e-01 9.381860e-01 9.938819e-02
8.470000e+09 9.392897e-01 9.718907e-02 2.581274e-02 -2.061269e-01 2.578775e-02 -2.061383e-01 9.390313e-01 9.675623e-02
8.505000e+09 9.401188e-01 9.455451e-02 2.492681e-02 -2.039256e-01 2.490175e-02 -2.039392e-01 9.398605e-01 9.412714e-02
8.540000e+09 9.409310e-01 9.192299e-02 2.405715e-02 -2.017278e-01 2.403171e-02 -2.017437e-01 9.406737e-01 9.150092e-02
8.575000e+09 9.417263e-01 8.929461e-02 2.320365e-02 -1.995337e-01 2.317751e-02 -1.995519e-01 9.414708e-01 8.887758e-02
8.610000e+09 9.425048e-01 8.666953e-02 2.236621e-02 -1.973433e-01 2.233905e-02 -1.973638e-01 9.422518e-01 8.625715e-02
8.645000e+09 9.432666e-01 8.404787e-02 2.154473e-02 -1.951566e-01 2.151624e-02 -1.951793e-01 9.430169e-01 8.363966e-02
8.680000e+09 9.440117e-01 8.142979e-02 2.073909e-02 -1.929738e-01 2.070896e-02 -1.929985e-01 9.437660e-01 8.102517e-02
8.715000e+09 9.447403e-01 7.881545e-02 1.994918e-02 -1.907948e-01 1.991714e-02 -1.908215e-01 9.444991e-01 7.841375e-02
8.750000e+09 9.454524e-01 7.620498e-02 1.917489e-02 -1.886199e-01 1.914068e-02 -1.886482e-01 9.452163e-01 7.580547e-02
8.785000e+09 9.461483e-01 7.359856e-02 1.841610e-02 -1.864489e-01 1.837948e-02 -1.864787e-01 9.459176e-01 7.320043e-02
8.820000e+09 9.468279e-01 7.099632e-02 1.767267e-02 -1.842821e-01 1.763345e-02 -1.843131e-01 9.466030e-01 7.059874e-02
8.855000e+09 9.474916e-01 6.839844e-02 1.694448e-02 -1.821195e-01 1.690249e-02 -1.821514e-01 9.472726e-01 6.800050e-02
8.890000e+09 9.481395e-01 6.580504e-02 1.623139e-02 -1.799612e-01 1.618651e-02 -1.799937e-01 9.479264e-01 6.540584e-02
8.925000e+09 9.487718e-01 6.321626e-02 1.553327e-02 -1.778072e-01 1.548541e-02 -1.778399e-01 9.485646e-01 6.281489e-02
8.960000e+09 9.493886e-01 6.063223e-02 1.484996e-02 -1.756576e-01 1.479909e-02 -1.756902e-01 9.491871e-01 6.022779e-02
8.995000e+09 9.499903e-01 5.805307e-02 1.418131e-02 -1.735124e-01 1.412743e-02 -1.735447e-01 9.497942e-01 5.764467e-02
9.030000e+09 9.505769e-01 5.547886e-02 1.352718e-02 -1.713718e-01 1.347035e-02 -1.714033e-01 9.503858e-01 5.506568e-02
9.065000e+09 9.511489e-01 5.290971e-02 1.288740e-02 -1.692357e-01 1.282771e-02 -1.692662e-01 9.509622e-01 5.249096e-02
9.100000e+09 9.517063e-01 5.034567e-02 1.226182e-02 -1.671043e-01 1.219941e-02 -1.671334e-01 9.515235e-01 4.992065e-02
9.135000e+09 9.522494e-01 4.778679e-02 1.165027e-02 -1.649775e-01 1.158533e-02 -1.650049e-01 9.520697e-01 4.735488e-02
9.170000e+09 9.527786e-01 4.523312e-02 1.105260e-02 -1.628555e-01 1.098533e-02 -1.628809e-01 9.526012e-01 4.479379e-02
9.205000e+09 9.532940e-01 4.268466e-02 1.046863e-02 -1.607381e-01 1.039930e-02 -1.607613e-01 9.531180e-01 4.223750e-02
9.240000e+09 9.537959e-01 4.014142e-02 9.898213e-03 -1.586255e-01 9.827104e-03 -1.586463e-01 9.536204e-01 3.968611e-02
9.275000e+09 9.542845e-01 3.760336e-02 9.341176e-03 -1.565176e-01 9.268603e-03 -1.565358e-01 9.541085e-01 3.713974e-02
9.310000e+09 9.547600e-01 3.507047e-02 8.797364e-03 -1.544145e-01 8.723659e-03 -1.544300e-01 9.545826e-01 3.459846e-02
9.345000e+09 9.552228e-01 3.254267e-02 8.266620e-03 -1.523161e-01 8.192131e-03 -1.523289e-01 9.550429e-01 3.206236e-02
9.380000e+09 9.556729e-01 3.001990e-02 7.748792e-03 -1.502225e-01 7.673876e-03 -1.502325e-01 9.554896e-01 2.953150e-02
9.415000e+09 9.561106e-01 2.750207e-02 7.243730e-03 -1.481336e-01 7.168749e-03 -1.481408e-01 9.559229e-01 2.700592e-02
9.450000e+09 9.565362e-01 2.498909e-02 6.751294e-03 -1.460494e-01 6.676604e-03 -1.460538e-01 9.563431e-01 2.448564e-02
9.485000e+09 9.569496e-01 2.248084e-02 6.271346e-03 -1.439698e-01 6.197295e-03 -1.439717e-01 9.567505e-01 2.197069e-02
9.520000e+09 9.573512e-01 1.997721e-02 5.803757e-03 -1.418949e-01 5.730674e-03 -1.418944e-01 9.571451e-01 1.946105e-02
9.555000e+09 9.577411e-01 1.747808e-02 5.348404e-03 -1.398246e-01 5.276599e-03 -1.398218e-01 9.575273e-01 1.695670e-02
9.590000e+09 9.581193e-01 1.498331e-02 4.905172e-03 -1.377589e-01 4.834924e-03 -1.377541e-01 9.578973e-01 1.445760e-02
9.625000e+09 9.584859e-01 1.249277e-02 4.473955e-03 -1.356976e-01 4.405509e-03 -1.356912e-01 9.582553e-01 1.196370e-02
9.660000e+09 9.588411e-01 1.000634e-02 4.054654e-03 -1.336409e-01 3.988218e-03 -1.336330e-01 9.586014e-01 9.474930e-03
9.695000e+09 9.591849e-01 7.523886e-03 3.647179e-03 -1.315885e-01 3.582916e-03 -1.315796e-01 9.589360e-01 6.991205e-03
9.730000e+09 9.595173e-01 5.045283e-03 3.251447e-03 -1.295406e-01 3.189474e-03 -1.295310e-01 9.592591e-01 4.512429e-03
9.765000e+09 9.598383e-01 2.570417e-03 2.867384e-03 -1.274970e-01 2.807769e-03 -1.274871e-01 9.595709e-01 2.038497e-03
9.800000e+09 9.601480e-01 9.918349e-05 2.494924e-03 -1.254577e-01 2.437683e-03 -1.254479e-01 9.598717e-01 -4.307076e-04
9.835000e+09 9.604463e-01 -2.368512e-03 2.134008e-03 -1.234227e-01 2.079104e-03 -1.234134e-01 9.601614e-01 -2.895307e-03
9.870000e+09 9.607333e-01 -4.832749e-03 1.784583e-03 -1.213918e-01 1.731925e-03 -1.213834e-01 9.604402e-01 -5.355428e-03
9.905000e+09 9.610088e-01 -7.293592e-03 1.446603e-03 -1.193652e-01 1.396050e-03 -1.193581e-01 9.607083e-01 -7.811201e-03
9.940000e+09 9.612728e-01 -9.751090e-03 1.120028e-03 -1.173428e-01 1.071386e-03 -1.173373e-01 9.609656e-01 -1.026276e-02
9.975000e+09 9.615253e-01 -1.220527e-02 8.048216e-04 -1.153245e-01 7.578489e-04 -1.153210e-01 9.612123e-01 -1.271023e-02
1.001000e+10 9.617662e-01 -1.465615e-02 5.009512e-04 -1.133104e-01 4.553619e-04 -1.133091e-01 9.614483e-01 -1.515374e-02
1.004500e+10 9.619955e-01 -1.710371e-02 2.083875e-04 -1.113005e-01 1.638550e-04 -1.113016e-01 9.616738e-01 -1.759341e-02
1.008000e+10 9.622130e-01 -1.954793e-02 -7.289708e-05 -1.092947e-01 -1.167350e-04 -1.092985e-01 9.618887e-01 -2.002936e-02
1.011500e+10 9.624187e-01 -2.198877e-02 -3.429295e-04 -1.072930e-01 -3.864644e-04 -1.072998e-01 9.620930e-01 -2.246167e-02
1.015000e+10 9.626126e-01 -2.442615e-02 -6.017367e-04 -1.052956e-01 -6.453835e-04 -1.053053e-01 9.622866e-01 -2.489046e-02
1.018500e+10 9.627945e-01 -2.685999e-02 -8.493470e-04 -1.033023e-01 -8.935367e-04 -1.033151e-01 9.624696e-01 -2.731578e-02
1.022000e+10 9.629646e-01 -2.929020e-02 -1.085791e-03 -1.013133e-01 -1.130963e-03 -1.013292e-01 9.626419e-01 -2.973770e-02
1.025500e+10 9.631226e-01 -3.171664e-02 -1.311101e-03 -9.932854e-02 -1.357698e-03 -9.934743e-02 9.628033e-01 -3.215628e-02
1.029000e+10 9.632687e-01 -3.413921e-02 -1.525317e-03 -9.734812e-02 -1.573771e-03 -9.736991e-02 9.629540e-01 -3.457152e-02
1.032500e+10 9.634028e-01 -3.655775e-02 -1.728479e-03 -9.537207e-02 -1.779210e-03 -9.539658e-02 9.630937e-01 -3.698346e-02
1.036000e+10 9.635249e-01 -3.897210e-02 -1.920635e-03 -9.340045e-02 -1.974042e-03 -9.342745e-02 9.632225e-01 -3.939206e-02
1.039500e+10 9.636351e-01 -4.138213e-02 -2.101840e-03 -9.143330e-02 -2.158290e-03 -9.146251e-02 9.633402e-01 -4.179732e-02
1.043000e+10 9.637334e-01 -4.378765e-02 -2.272154e-03 -8.947069e-02 -2.331976e-03 -8.950178e-02 9.634467e-01 -4.419917e-02
1.046500e+10 9.638200e-01 -4.618851e-02 -2.431645e-03 -8.751268e-02 -2.495126e-03 -8.754527e-02 9.635421e-01 -4.659756e-02
1.050000e+10 9.638948e-01 -4.858454e-02 -2.580386e-03 -8.555933e-02 -2.647764e-03 -8.559301e-02 9.636262e-01 -4.899241e-02
1.053500e+10 9.639581e-01 -5.097559e-02 -2.718461e-03 -8.361070e-02 -2.789916e-03 -8.364501e-02 9.636990e-01 -5.138360e-02
1.057000e+10 9.640100e-01 -5.336150e-02 -2.845957e-03 -8.166685e-02 -2.921613e-03 -8.170133e-02 9.637605e-01 -5.377104e-02
1.060500e+10 9.640506e-01 -5.574213e-02 -2.962972e-03 -7.972783e-02 -3.042887e-03 -7.976198e-02 9.638106e-01 -5.615458e-02
1.064000e+10 9.640801e-01 -5.811734e-02 -3.069607e-03 -7.779370e-02 -3.153777e-03 -7.782702e-02 9.638493e-01 -5.853410e-02
1.067500e+10 9.640987e-01 -6.048703e-02 -3.165973e-03 -7.586450e-02 -3.254323e-03 -7.589650e-02 9.638767e-01 -6.090944e-02
1.071000e+10 9.641066e-01 -6.285109e-02 -3.252183e-03 -7.394028e-02 -3.344576e-03 -7.397046e-02 9.638927e-01 -6.328044e-02
1.074500e+10 9.641041e-01 -6.520944e-02 -3.328356e-03 -7.202106e-02 -3.424587e-03 -7.204896e-02 9.638975e-01 -6.564695e-02
1.078000e+10 9.640913e-01 -6.756203e-02 -3.394617e-03 -7.010689e-02 -3.494416e-03 -7.013205e-02 9.638911e-01 -6.800879e-02
1.081500e+10 9.640685e-01 -6.990881e-02 -3.451091e-03 -6.819776e-02 -3.554131e-03 -6.821978e-02 9.638735e-01 -7.036582e-02
1.085000e+10 9.640360e-01 -7.224977e-02 -3.497906e-03 -6.629371e-02 -3.603803e-03 -6.631221e-02 9.638449e-01 -7.271786e-02
1.088500e+10 9.639939e-01 -7.458493e-02 -3.535193e-03 -6.439472e-02 -3.643512e-03 -6.440939e-02 9.638053e-01 -7.506475e-02
1.092000e+10 9.639426e-01 -7.691430e-02 -3.563079e-03 -6.250079e-02 -3.673343e-03 -6.251137e-02 9.637551e-01 -7.740636e-02
1.095500e+10 9.638822e-01 -7.923796e-02 -3.581692e-03 -6.061191e-02 -3.693389e-03 -6.061821e-02 9.636942e-01 -7.974255e-02
1.099000e+10 9.638130e-01 -8.155599e-02 -3.591157e-03 -5.872805e-02 -3.703745e-03 -5.872993e-02 9.636230e-01 -8.207319e-02
1.102500e+10 9.637353e-01 -8.386847e-02 -3.591594e-03 -5.684917e-02 -3.704516e-03 -5.684659e-02 9.635415e-01 -8.439818e-02
1.106000e+10 9.636491e-01 -8.617555e-02 -3.583121e-03 -5.497524e-02 -3.695807e-03 -5.496821e-02 9.634501e-01 -8.671742e-02
1.109500e+10 9.635547e-01 -8.847737e-02 -3.565846e-03 -5.310620e-02 -3.677731e-03 -5.309482e-02 9.633488e-01 -8.903085e-02
1.113000e+10 9.634523e-01 -9.077408e-02 -3.539872e-03 -5.124200e-02 -3.650401e-03 -5.122645e-02 9.632380e-01 -9.133842e-02
1.116500e+10 9.633420e-01 -9.306586e-02 -3.505294e-03 -4.938258e-02 -3.613934e-03 -4.936309e-02 9.631179e-01 -9.364010e-02
1.120000e+10 9.632239e-01 -9.535290e-02 -3.462198e-03 -4.752786e-02 -3.568447e-03 -4.750476e-02 9.629888e-01 -9.593589e-02
1.123500e+10 9.630981e-01 -9.763539e-02 -3.410660e-03 -4.567777e-02 -3.514058e-03 -4.565145e-02 9.628508e-01 -9.822580e-02
1.127000e+10 9.629647e-01 -9.991355e-02 -3.350747e-03 -4.383224e-02 -3.450885e-03 -4.380315e-02 9.627042e-01 -1.005099e-01
1.130500e+10 9.628238e-01 -1.021876e-01 -3.282514e-03 -4.199118e-02 -3.379042e-03 -4.195983e-02 9.625493e-01 -1.027882e-01
1.134000e+10 9.626753e-01 -1.044577e-01 -3.206005e-03 -4.015453e-02 -3.298642e-03 -4.012148e-02 9.623862e-01 -1.050609e-01
1.137500e+10 9.625192e-01 -1.067240e-01 -3.121257e-03 -3.832221e-02 -3.209794e-03 -3.828805e-02 9.622152e-01 -1.073280e-01
1.141000e+10 9.623555e-01 -1.089868e-01 -3.028291e-03 -3.649413e-02 -3.112602e-03 -3.645951e-02 9.620364e-01 -1.095896e-01
1.144500e+10 9.621841e-01 -1.112463e-01 -2.927122e-03 -3.467024e-02 -3.007162e-03 -3.463579e-02 9.618501e-01 -1.118460e-01
1.148000e+10 9.620050e-01 -1.135026e-01 -2.817752e-03 -3.285046e-02 -2.893566e-03 -3.281684e-02 9.616564e-01 -1.140974e-01
1.151500e+10 9.618179e-01 -1.157558e-01 -2.700177e-03 -3.103473e-02 -2.771898e-03 -3.100260e-02 9.614555e-01 -1.163438e-01
1.155000e+10 9.616229e-01 -1.180061e-01 -2.574381e-03 -2.922300e-02 -2.642232e-03 -2.919301e-02 9.612474e-01 -1.185854e-01
1.158500e+10 9.614196e-01 -1.202536e-01 -2.440343e-03 -2.741524e-02 -2.504634e-03 -2.738799e-02 9.610322e-01 -1.208226e-01
1.162000e+10 9.612080e-01 -1.224983e-01 -2.298036e-03 -2.561139e-02 -2.359162e-03 -2.558747e-02 9.608101e-01 -1.230555e-01
1.165500e+10 9.609879e-01 -1.247403e-01 -2.147426e-03 -2.381145e-02 -2.205861e-03 -2.379137e-02 9.605810e-01 -1.252843e-01
1.169000e+10 9.607591e-01 -1.269796e-01 -1.988477e-03 -2.201539e-02 -2.044771e-03 -2.199962e-02 9.603449e-01 -1.275092e-01
1.172500e+10 9.605214e-01 -1.292163e-01 -1.821150e-03 -2.022322e-02 -1.875917e-03 -2.021216e-02 9.601019e-01 -1.297305e-01
1.176000e+10 9.602746e-01 -1.314502e-01 -1.645406e-03 -1.843494e-02 -1.699316e-03 -1.842889e-02 9.598518e-01 -1.319483e-01
1.179500e+10 9.600185e-01 -1.336812e-01 -1.461205e-03 -1.665057e-02 -1.514977e-03 -1.664977e-02 9.595946e-01 -1.341628e-01
1.183000e+10 9.597530e-01 -1.359094e-01 -1.268512e-03 -1.487015e-02 -1.322899e-03 -1.487472e-02 9.593301e-01 -1.363742e-01
1.186500e+10 9.594779e-01 -1.381345e-01 -1.067294e-03 -1.309372e-02 -1.123070e-03 -1.310369e-02 9.590584e-01 -1.385827e-01
1.190000e+10 9.591930e-01 -1.403564e-01 -8.575243e-04 -1.132134e-02 -9.154735e-04 -1.133663e-02 9.587791e-01 -1.407884e-01
1.193500e+10 9.588982e-01 -1.425748e-01 -6.391831e-04 -9.553059e-03 -7.000844e-04 -9.573498e-03 9.584922e-01 -1.429915e-01
1.197000e+10 9.585935e-01 -1.447896e-01 -4.122585e-04 -7.788962e-03 -4.768720e-04 -7.814257e-03 9.581975e-01 -1.451919e-01
1.200500e+10 9.582787e-01 -1.470006e-01 -1.767482e-04 -6.029124e-03 -2.458005e-04 -6.058885e-03 9.578947e-01 -1.473898e-01
1.204000e+10 9.579538e-01 -1.492074e-01 6.733955e-05 -4.273634e-03 -6.830654e-06 -4.307368e-03 9.575837e-01 -1.495851e-01
1.207500e+10 9.576188e-01 -1.514099e-01 3.199851e-04 -2.522583e-03 2.400790e-04 -2.559703e-03 9.572642e-01 -1.517780e-01
1.211000e+10 9.572737e-01 -1.536078e-01 5.811565e-04 -7.760642e-04 4.949711e-04 -8.158967e-04 9.569361e-01 -1.539683e-01
1.214500e+10 9.569187e-01 -1.558007e-01 8.508094e-04 9.658246e-04 7.578876e-04 9.240310e-04 9.565991e-01 -1.561560e-01
1.218000e+10 9.565536e-01 -1.579885e-01 1.128886e-03 2.702987e-03 1.028869e-03 2.660051e-03 9.562530e-01 -1.583409e-01
1.221500e+10 9.561788e-01 -1.601708e-01 1.415317e-03 4.435330e-03 1.307951e-03 4.392124e-03 9.558977e-01 -1.605230e-01
1.225000e+10 9.557944e-01 -1.623474e-01 1.710017e-03 6.162761e-03 1.595167e-03 6.120198e-03 9.555329e-01 -1.627021e-01
1.228500e+10 9.554005e-01 -1.645181e-01 2.012893e-03 7.885196e-03 1.890542e-03 7.844214e-03 9.551585e-01 -1.648780e-01
1.232000e+10 9.549974e-01 -1.666827e-01 2.323836e-03 9.602557e-03 2.194095e-03 9.564104e-03 9.547745e-01 -1.670504e-01
1.235500e+10 9.545854e-01 -1.688409e-01 2.642728e-03 1.131478e-02 2.505835e-03 1.127979e-02 9.543805e-01 -1.692192e-01
1.239000e+10 9.541648e-01 -1.709926e-01 2.969442e-03 1.302179e-02 2.825763e-03 1.299119e-02 9.539767e-01 -1.713841e-01
1.242500e+10 9.537358e-01 -1.731377e-01 3.303841e-03 1.472356e-02 3.153868e-03 1.469821e-02 9.535630e-01 -1.735448e-01
1.246000e+10 9.532989e-01 -1.752761e-01 3.645784e-03 1.642005e-02 3.490128e-03 1.640077e-02 9.531393e-01 -1.757011e-01
1.249500e+10 9.528542e-01 -1.774077e-01 3.995122e-03 1.811124e-02 3.834510e-03 1.809876e-02 9.527056e-01 -1.778525e-01
1.253000e+10 9.524023e-01 -1.795325e-01 4.351704e-03 1.979712e-02 4.186967e-03 1.979209e-02 9.522621e-01 -1.799989e-01
1.256500e+10 9.519434e-01 -1.816506e-01 4.715379e-03 2.147771e-02 4.547440e-03 2.148067e-02 9.518089e-01 -1.821399e-01
1.260000e+10 9.514779e-01 -1.837620e-01 5.085996e-03 2.315304e-02 4.915858e-03 2.316440e-02 9.513460e-01 -1.842753e-01
1.263500e+10 9.510062e-01 -1.858669e-01 5.463406e-03 2.482314e-02 5.292137e-03 2.484320e-02 9.508737e-01 -1.864048e-01
1.267000e+10 9.505286e-01 -1.879653e-01 5.847467e-03 2.648808e-02 5.676182e-03 2.651698e-02 9.503921e-01 -1.885282e-01
1.270500e+10 9.500453e-01 -1.900576e-01 6.238044e-03 2.814792e-02 6.067885e-03 2.818566e-02 9.499017e-01 -1.906451e-01
1.274000e+10 9.495568e-01 -1.921439e-01 6.635011e-03 2.980277e-02 6.467130e-03 2.984919e-02 9.494025e-01 -1.927554e-01
1.277500e+10 9.490632e-01 -1.942246e-01 7.038253e-03 3.145272e-02 6.873791e-03 3.150750e-02 9.488949e-01 -1.948589e-01
1.281000e+10 9.485647e-01 -1.962999e-01 7.447668e-03 3.309788e-02 7.287734e-03 3.316056e-02 9.483793e-01 -1.969555e-01
1.284500e+10 9.480617e-01 -1.983702e-01 7.863172e-03 3.473837e-02 7.708819e-03 3.480833e-02 9.478560e-01 -1.990451e-01
1.288000e+10 9.475541e-01 -2.004358e-01 8.284692e-03 3.637433e-02 8.136900e-03 3.645080e-02 9.473255e-01 -2.011276e-01
1.291500e+10 9.470421e-01 -2.024971e-01 8.712178e-03 3.800589e-02 8.571830e-03 3.808796e-02 9.467879e-01 -2.032030e-01
1.295000e+10 9.465257e-01 -2.045546e-01 9.145594e-03 3.963320e-02 9.013460e-03 3.971983e-02 9.462439e-01 -2.052713e-01
1.298500e+10 9.460049e-01 -2.066085e-01 9.584927e-03 4.125640e-02 9.461643e-03 4.134644e-02 9.456937e-01 -2.073327e-01
1.302000e+10 9.454796e-01 -2.086594e-01 1.003018e-02 4.287563e-02 9.916234e-03 4.296784e-02 9.451377e-01 -2.093871e-01
1.305500e+10 9.449498e-01 -2.107076e-01 1.048138e-02 4.449103e-02 1.037709e-02 4.458408e-02 9.445763e-01 -2.114349e-01
1.309000e+10 9.444153e-01 -2.127534e-01 1.093857e-02 4.610273e-02 1.084409e-02 4.619524e-02 9.440098e-01 -2.134762e-01
1.312500e+10 9.438758e-01 -2.147972e-01 1.140181e-02 4.771085e-02 1.131710e-02 4.780141e-02 9.434387e-01 -2.155113e-01
1.316000e+10 9.433310e-01 -2.168394e-01 1.187118e-02 4.931551e-02 1.179601e-02 4.940270e-02 9.428630e-01 -2.175405e-01
1.319500e+10 9.427807e-01 -2.188802e-01 1.234677e-02 5.091680e-02 1.228072e-02 5.099921e-02 9.422832e-01 -2.195641e-01
1.323000e+10 9.422245e-01 -2.209198e-01 1.282870e-02 5.251480e-02 1.277116e-02 5.259108e-02 9.416994e-01 -2.215825e-01
1.326500e+10 9.416621e-01 -2.229584e-01 1.331709e-02 5.410959e-02 1.326724e-02 5.417844e-02 9.411118e-01 -2.235961e-01
1.330000e+10 9.410929e-01 -2.249963e-01 1.381208e-02 5.570120e-02 1.376892e-02 5.576143e-02 9.405205e-01 -2.256053e-01
1.333500e+10 9.405166e-01 -2.270333e-01 1.431379e-02 5.728966e-02 1.427617e-02 5.734018e-02 9.399256e-01 -2.276106e-01
1.337000e+10 9.399326e-01 -2.290697e-01 1.482238e-02 5.887497e-02 1.478897e-02 5.891486e-02 9.393271e-01 -2.296124e-01
1.340500e+10 9.393407e-01 -2.311052e-01 1.533799e-02 6.045711e-02 1.530734e-02 6.048560e-02 9.387249e-01 -2.316112e-01
1.344000e+10 9.387402e-01 -2.331399e-01 1.586077e-02 6.203602e-02 1.583129e-02 6.205256e-02 9.381189e-01 -2.336074e-01
1.347500e+10 9.381307e-01 -2.351736e-01 1.639086e-02 6.361165e-02 1.636087e-02 6.361585e-02 9.375090e-01 -2.356014e-01
1.351000e+10 9.375119e-01 -2.372059e-01 1.692839e-02 6.518390e-02 1.689614e-02 6.517563e-02 9.368949e-01 -2.375937e-01
1.354500e+10 9.368832e-01 -2.392366e-01 1.747348e-02 6.675265e-02 1.743719e-02 6.673201e-02 9.362764e-01 -2.395846e-01
1.358000e+10 9.362444e-01 -2.412653e-01 1.802624e-02 6.831777e-02 1.798412e-02 6.828508e-02 9.356531e-01 -2.415746e-01
1.361500e+10 9.355952e-01 -2.432917e-01 1.858677e-02 6.987910e-02 1.853704e-02 6.983496e-02 9.350246e-01 -2.435638e-01
1.365000e+10 9.349351e-01 -2.453152e-01 1.915513e-02 7.143648e-02 1.909609e-02 7.138170e-02 9.343905e-01 -2.455527e-01
1.368500e+10 9.342642e-01 -2.473354e-01 1.973137e-02 7.298971e-02 1.966139e-02 7.292537e-02 9.337504e-01 -2.475413e-01
1.372000e+10 9.335822e-01 -2.493516e-01 2.031552e-02 7.453859e-02 2.023310e-02 7.446600e-02 9.331037e-01 -2.495298e-01
1.375500e+10 9.328890e-01 -2.513634e-01 2.090757e-02 7.608293e-02 2.081138e-02 7.600360e-02 9.324500e-01 -2.515184e-01
1.379000e+10 9.321847e-01 -2.533701e-01 2.150749e-02 7.762250e-02 2.139638e-02 7.753815e-02 9.317886e-01 -2.535070e-01
1.382500e+10 9.314693e-01 -2.553711e-01 2.211523e-02 7.915710e-02 2.198826e-02 7.906963e-02 9.311191e-01 -2.554955e-01
1.386000e+10 9.307431e-01 -2.573659e-01 2.273070e-02 8.068651e-02 2.258718e-02 8.059798e-02 9.304410e-01 -2.574838e-01
1.389500e+10 9.300063e-01 -2.593538e-01 2.335377e-02 8.221054e-02 2.319330e-02 8.212310e-02 9.297536e-01 -2.594718e-01
1.393000e+10 9.292591e-01 -2.613343e-01 2.398431e-02 8.372899e-02 2.380675e-02 8.364489e-02 9.290564e-01 -2.614591e-01
1.396500e+10 9.285022e-01 -2.633070e-01 2.462215e-02 8.524168e-02 2.442765e-02 8.516322e-02 9.283491e-01 -2.634454e-01
1.400000e+10 9.277358e-01 -2.652712e-01 2.526707e-02 8.674846e-02 2.505614e-02 8.667793e-02 9.276312e-01 -2.654302e-01
