#   Hz   S  RI   R   50
!
0.000000e+00 2.807500e-02 0.000000e+00 9.611169e-01 0.000000e+00 9.611166e-01 0.000000e+00 2.810800e-02 0.000000e+00
3.500000e+07 2.819176e-02 9.808020e-03 9.609931e-01 -1.063304e-02 9.609928e-01 -1.063303e-02 2.822472e-02 9.804168e-03
7.000000e+07 2.854182e-02 1.960785e-02 9.606219e-01 -2.125721e-02 9.606216e-01 -2.125719e-02 2.857468e-02 1.960015e-02
1.050000e+08 2.912456e-02 2.939131e-02 9.600040e-01 -3.186365e-02 9.600037e-01 -3.186363e-02 2.915726e-02 2.937977e-02
1.400000e+08 2.993893e-02 3.915032e-02 9.591406e-01 -4.244360e-02 9.591403e-01 -4.244357e-02 2.997140e-02 3.913494e-02
1.750000e+08 3.098348e-02 4.887683e-02 9.580332e-01 -5.298835e-02 9.580329e-01 -5.298832e-02 3.101565e-02 4.885764e-02
2.100000e+08 3.225634e-02 5.856294e-02 9.566839e-01 -6.348936e-02 9.566836e-01 -6.348932e-02 3.228815e-02 5.853995e-02
2.450000e+08 3.375529e-02 6.820087e-02 9.550951e-01 -7.393820e-02 9.550948e-01 -7.393815e-02 3.378667e-02 6.817410e-02
2.800000e+08 3.547768e-02 7.778302e-02 9.532698e-01 -8.432665e-02 9.532695e-01 -8.432659e-02 3.550857e-02 7.775250e-02
3.150000e+08 3.742052e-02 8.730197e-02 9.512111e-01 -9.464668e-02 9.512109e-01 -9.464662e-02 3.745088e-02 8.726772e-02
3.500000e+08 3.958050e-02 9.675048e-02 9.489229e-01 -1.048905e-01 9.489226e-01 -1.048904e-01 3.961024e-02 9.671254e-02
3.850000e+08 4.195392e-02 1.061216e-01 9.464090e-01 -1.150506e-01 9.464088e-01 -1.150505e-01 4.198301e-02 1.060800e-01
4.200000e+08 4.453683e-02 1.154086e-01 9.436739e-01 -1.251196e-01 9.436736e-01 -1.251196e-01 4.456519e-02 1.153633e-01
4.550000e+08 4.732495e-02 1.246049e-01 9.407222e-01 -1.350907e-01 9.407220e-01 -1.350907e-01 4.735254e-02 1.245561e-01
4.900000e+08 5.031374e-02 1.337045e-01 9.375589e-01 -1.449572e-01 9.375587e-01 -1.449571e-01 5.034050e-02 1.336521e-01
5.250000e+08 5.349843e-02 1.427013e-01 9.341892e-01 -1.547127e-01 9.341890e-01 -1.547126e-01 5.352431e-02 1.426455e-01
5.600000e+08 5.687400e-02 1.515899e-01 9.306187e-01 -1.643512e-01 9.306185e-01 -1.643511e-01 5.689896e-02 1.515306e-01
5.950000e+08 6.043525e-02 1.603649e-01 9.268530e-01 -1.738671e-01 9.268527e-01 -1.738670e-01 6.045925e-02 1.603022e-01
6.300000e+08 6.417681e-02 1.690214e-01 9.228980e-01 -1.832551e-01 9.228977e-01 -1.832550e-01 6.419979e-02 1.689553e-01
6.650000e+08 6.809313e-02 1.775548e-01 9.187597e-01 -1.925103e-01 9.187595e-01 -1.925102e-01 6.811506e-02 1.774854e-01
7.000000e+08 7.217856e-02 1.859607e-01 9.144444e-01 -2.016280e-01 9.144442e-01 -2.016279e-01 7.219940e-02 1.858880e-01
7.350000e+08 7.642732e-02 1.942352e-01 9.099584e-01 -2.106041e-01 9.099581e-01 -2.106040e-01 7.644704e-02 1.941593e-01
7.700000e+08 8.083357e-02 2.023747e-01 9.053080e-01 -2.194348e-01 9.053078e-01 -2.194347e-01 8.085212e-02 2.022956e-01
8.050000e+08 8.539139e-02 2.103758e-01 9.004997e-01 -2.281165e-01 9.004995e-01 -2.281164e-01 8.540875e-02 2.102936e-01
8.400000e+08 9.009483e-02 2.182356e-01 8.955400e-01 -2.366462e-01 8.955398e-01 -2.366461e-01 9.011097e-02 2.181504e-01
8.750000e+08 9.493791e-02 2.259513e-01 8.904355e-01 -2.450210e-01 8.904353e-01 -2.450209e-01 9.495280e-02 2.258631e-01
9.100000e+08 9.991467e-02 2.335207e-01 8.851926e-01 -2.532386e-01 8.851924e-01 -2.532385e-01 9.992829e-02 2.334295e-01
9.450000e+08 1.050191e-01 2.409416e-01 8.798178e-01 -2.612968e-01 8.798176e-01 -2.612966e-01 1.050315e-01 2.408476e-01
9.800000e+08 1.102454e-01 2.482123e-01 8.743176e-01 -2.691938e-01 8.743174e-01 -2.691937e-01 1.102564e-01 2.481155e-01
1.015000e+09 1.155876e-01 2.553313e-01 8.686984e-01 -2.769282e-01 8.686982e-01 -2.769281e-01 1.155973e-01 2.552317e-01
1.050000e+09 1.210399e-01 2.622975e-01 8.629664e-01 -2.844989e-01 8.629662e-01 -2.844988e-01 1.210482e-01 2.621952e-01
1.085000e+09 1.265966e-01 2.691098e-01 8.571279e-01 -2.919049e-01 8.571278e-01 -2.919048e-01 1.266036e-01 2.690049e-01
1.120000e+09 1.322520e-01 2.757676e-01 8.511891e-01 -2.991457e-01 8.511889e-01 -2.991456e-01 1.322576e-01 2.756601e-01
1.155000e+09 1.380007e-01 2.822705e-01 8.451558e-01 -3.062209e-01 8.451557e-01 -3.062208e-01 1.380049e-01 2.821604e-01
1.190000e+09 1.438371e-01 2.886181e-01 8.390340e-01 -3.131305e-01 8.390339e-01 -3.131303e-01 1.438400e-01 2.885055e-01
1.225000e+09 1.497561e-01 2.948105e-01 8.328294e-01 -3.198745e-01 8.328293e-01 -3.198743e-01 1.497576e-01 2.946955e-01
1.260000e+09 1.557524e-01 3.008479e-01 8.265477e-01 -3.264533e-01 8.265475e-01 -3.264532e-01 1.557525e-01 3.007305e-01
1.295000e+09 1.618210e-01 3.067306e-01 8.201941e-01 -3.328675e-01 8.201940e-01 -3.328674e-01 1.618197e-01 3.066108e-01
1.330000e+09 1.679569e-01 3.124591e-01 8.137741e-01 -3.391178e-01 8.137740e-01 -3.391177e-01 1.679543e-01 3.123371e-01
1.365000e+09 1.741555e-01 3.180343e-01 8.072927e-01 -3.452052e-01 8.072926e-01 -3.452051e-01 1.741515e-01 3.179100e-01
1.400000e+09 1.804120e-01 3.234568e-01 8.007549e-01 -3.511307e-01 8.007548e-01 -3.511306e-01 1.804067e-01 3.233304e-01
1.435000e+09 1.867222e-01 3.287278e-01 7.941656e-01 -3.568956e-01 7.941654e-01 -3.568955e-01 1.867154e-01 3.285992e-01
1.470000e+09 1.930815e-01 3.338483e-01 7.875292e-01 -3.625012e-01 7.875291e-01 -3.625011e-01 1.930734e-01 3.337176e-01
1.505000e+09 1.994859e-01 3.388195e-01 7.808503e-01 -3.679491e-01 7.808502e-01 -3.679490e-01 1.994764e-01 3.386867e-01
1.540000e+09 2.059313e-01 3.436427e-01 7.741331e-01 -3.732407e-01 7.741330e-01 -3.732406e-01 2.059205e-01 3.435080e-01
1.575000e+09 2.124139e-01 3.483195e-01 7.673818e-01 -3.783778e-01 7.673817e-01 -3.783777e-01 2.124018e-01 3.481827e-01
1.610000e+09 2.189300e-01 3.528512e-01 7.606003e-01 -3.833622e-01 7.606002e-01 -3.833621e-01 2.189166e-01 3.527125e-01
1.645000e+09 2.254760e-01 3.572394e-01 7.537924e-01 -3.881957e-01 7.537923e-01 -3.881957e-01 2.254613e-01 3.570988e-01
1.680000e+09 2.320484e-01 3.614858e-01 7.469617e-01 -3.928803e-01 7.469616e-01 -3.928802e-01 2.320324e-01 3.613434e-01
1.715000e+09 2.386440e-01 3.655921e-01 7.401117e-01 -3.974179e-01 7.401116e-01 -3.974178e-01 2.386267e-01 3.654478e-01
1.750000e+09 2.452597e-01 3.695600e-01 7.332457e-01 -4.018105e-01 7.332456e-01 -4.018104e-01 2.452411e-01 3.694139e-01
1.785000e+09 2.518923e-01 3.733912e-01 7.263669e-01 -4.060602e-01 7.263668e-01 -4.060601e-01 2.518725e-01 3.732433e-01
1.820000e+09 2.585391e-01 3.770876e-01 7.194782e-01 -4.101690e-01 7.194781e-01 -4.101690e-01 2.585181e-01 3.769380e-01
1.855000e+09 2.651973e-01 3.806510e-01 7.125826e-01 -4.141392e-01 7.125825e-01 -4.141392e-01 2.651750e-01 3.804997e-01
1.890000e+09 2.718642e-01 3.840832e-01 7.056827e-01 -4.179728e-01 7.056826e-01 -4.179727e-01 2.718407e-01 3.839302e-01
1.925000e+09 2.785373e-01 3.873861e-01 6.987812e-01 -4.216719e-01 6.987812e-01 -4.216719e-01 2.785127e-01 3.872314e-01
1.960000e+09 2.852143e-01 3.905616e-01 6.918806e-01 -4.252388e-01 6.918805e-01 -4.252387e-01 2.851885e-01 3.904053e-01
1.995000e+09 2.918928e-01 3.936115e-01 6.849831e-01 -4.286755e-01 6.849831e-01 -4.286754e-01 2.918659e-01 3.934536e-01
2.030000e+09 2.985707e-01 3.965378e-01 6.780911e-01 -4.319842e-01 6.780911e-01 -4.319842e-01 2.985427e-01 3.963782e-01
2.065000e+09 3.052459e-01 3.993422e-01 6.712067e-01 -4.351670e-01 6.712066e-01 -4.351670e-01 3.052168e-01 3.991811e-01
2.100000e+09 3.119164e-01 4.020268e-01 6.643317e-01 -4.382261e-01 6.643317e-01 -4.382261e-01 3.118862e-01 4.018641e-01
2.135000e+09 3.185803e-01 4.045932e-01 6.574682e-01 -4.411635e-01 6.574682e-01 -4.411635e-01 3.185491e-01 4.044289e-01
2.170000e+09 3.252359e-01 4.070434e-01 6.506180e-01 -4.439814e-01 6.506180e-01 -4.439814e-01 3.252036e-01 4.068776e-01
2.205000e+09 3.318813e-01 4.093792e-01 6.437827e-01 -4.466819e-01 6.437827e-01 -4.466819e-01 3.318481e-01 4.092119e-01
2.240000e+09 3.385151e-01 4.116024e-01 6.369640e-01 -4.492669e-01 6.369640e-01 -4.492669e-01 3.384808e-01 4.114335e-01
2.275000e+09 3.451356e-01 4.137147e-01 6.301635e-01 -4.517384e-01 6.301634e-01 -4.517384e-01 3.451004e-01 4.135444e-01
2.310000e+09 3.517414e-01 4.157181e-01 6.233824e-01 -4.540986e-01 6.233824e-01 -4.540986e-01 3.517052e-01 4.155463e-01
2.345000e+09 3.583311e-01 4.176142e-01 6.166223e-01 -4.563493e-01 6.166223e-01 -4.563493e-01 3.582939e-01 4.174409e-01
2.380000e+09 3.649032e-01 4.194047e-01 6.098845e-01 -4.584925e-01 6.098845e-01 -4.584925e-01 3.648652e-01 4.192300e-01
2.415000e+09 3.714567e-01 4.210914e-01 6.031701e-01 -4.605300e-01 6.031701e-01 -4.605301e-01 3.714177e-01 4.209152e-01
2.450000e+09 3.779901e-01 4.226760e-01 5.964803e-01 -4.624639e-01 5.964803e-01 -4.624639e-01 3.779502e-01 4.224983e-01
2.485000e+09 3.845024e-01 4.241601e-01 5.898163e-01 -4.642959e-01 5.898163e-01 -4.642959e-01 3.844616e-01 4.239809e-01
2.520000e+09 3.909925e-01 4.255453e-01 5.831790e-01 -4.660277e-01 5.831790e-01 -4.660278e-01 3.909508e-01 4.253647e-01
2.555000e+09 3.974592e-01 4.268332e-01 5.765695e-01 -4.676613e-01 5.765695e-01 -4.676614e-01 3.974168e-01 4.266512e-01
2.590000e+09 4.039017e-01 4.280255e-01 5.699887e-01 -4.691984e-01 5.699887e-01 -4.691985e-01 4.038584e-01 4.278420e-01
2.625000e+09 4.103189e-01 4.291237e-01 5.634374e-01 -4.706406e-01 5.634374e-01 -4.706407e-01 4.102748e-01 4.289387e-01
2.660000e+09 4.167099e-01 4.301293e-01 5.569166e-01 -4.719897e-01 5.569166e-01 -4.719898e-01 4.166651e-01 4.299429e-01
2.695000e+09 4.230739e-01 4.310439e-01 5.504270e-01 -4.732473e-01 5.504270e-01 -4.732474e-01 4.230283e-01 4.308560e-01
2.730000e+09 4.294100e-01 4.318689e-01 5.439694e-01 -4.744151e-01 5.439694e-01 -4.744152e-01 4.293636e-01 4.316795e-01
2.765000e+09 4.357174e-01 4.326057e-01 5.375444e-01 -4.754946e-01 5.375445e-01 -4.754947e-01 4.356702e-01 4.324150e-01
2.800000e+09 4.419953e-01 4.332559e-01 5.311528e-01 -4.764874e-01 5.311529e-01 -4.764875e-01 4.419474e-01 4.330637e-01
2.835000e+09 4.482431e-01 4.338209e-01 5.247953e-01 -4.773951e-01 5.247953e-01 -4.773952e-01 4.481945e-01 4.336272e-01
2.870000e+09 4.544599e-01 4.343019e-01 5.184723e-01 -4.782191e-01 5.184723e-01 -4.782192e-01 4.544106e-01 4.341068e-01
2.905000e+09 4.606452e-01 4.347005e-01 5.121845e-01 -4.789609e-01 5.121845e-01 -4.789610e-01 4.605952e-01 4.345039e-01
2.940000e+09 4.667983e-01 4.350179e-01 5.059325e-01 -4.796220e-01 5.059325e-01 -4.796222e-01 4.667476e-01 4.348198e-01
2.975000e+09 4.729186e-01 4.352555e-01 4.997167e-01 -4.802038e-01 4.997168e-01 -4.802040e-01 4.728672e-01 4.350559e-01
3.010000e+09 4.790054e-01 4.354145e-01 4.935377e-01 -4.807077e-01 4.935378e-01 -4.807079e-01 4.789533e-01 4.352135e-01
3.045000e+09 4.850582e-01 4.354964e-01 4.873959e-01 -4.811351e-01 4.873960e-01 -4.811353e-01 4.850055e-01 4.352938e-01
3.080000e+09 4.910765e-01 4.355022e-01 4.812919e-01 -4.814873e-01 4.812919e-01 -4.814875e-01 4.910232e-01 4.352981e-01
3.115000e+09 4.970598e-01 4.354334e-01 4.752259e-01 -4.817656e-01 4.752260e-01 -4.817658e-01 4.970058e-01 4.352278e-01
3.150000e+09 5.030075e-01 4.352910e-01 4.691985e-01 -4.819714e-01 4.691985e-01 -4.819716e-01 5.029529e-01 4.350839e-01
3.185000e+09 5.089191e-01 4.350763e-01 4.632099e-01 -4.821059e-01 4.632100e-01 -4.821061e-01 5.088639e-01 4.348677e-01
3.220000e+09 5.147942e-01 4.347906e-01 4.572607e-01 -4.821704e-01 4.572607e-01 -4.821706e-01 5.147384e-01 4.345804e-01
3.255000e+09 5.206324e-01 4.344349e-01 4.513510e-01 -4.821661e-01 4.513511e-01 -4.821662e-01 5.205760e-01 4.342232e-01
3.290000e+09 5.264332e-01 4.340105e-01 4.454813e-01 -4.820942e-01 4.454814e-01 -4.820943e-01 5.263762e-01 4.337972e-01
3.325000e+09 5.321962e-01 4.335185e-01 4.396519e-01 -4.819559e-01 4.396520e-01 -4.819561e-01 5.321386e-01 4.333037e-01
3.360000e+09 5.379210e-01 4.329600e-01 4.338631e-01 -4.817524e-01 4.338632e-01 -4.817526e-01 5.378628e-01 4.327436e-01
3.395000e+09 5.436072e-01 4.323361e-01 4.281152e-01 -4.814849e-01 4.281152e-01 -4.814851e-01 5.435485e-01 4.321181e-01
3.430000e+09 5.492545e-01 4.316480e-01 4.224083e-01 -4.811545e-01 4.224084e-01 -4.811546e-01 5.491952e-01 4.314284e-01
3.465000e+09 5.548625e-01 4.308967e-01 4.167429e-01 -4.807622e-01 4.167430e-01 -4.807624e-01 5.548027e-01 4.306755e-01
3.500000e+09 5.604309e-01 4.300832e-01 4.111191e-01 -4.803093e-01 4.111192e-01 -4.803095e-01 5.603705e-01 4.298604e-01
3.535000e+09 5.659594e-01 4.292088e-01 4.055373e-01 -4.797968e-01 4.055373e-01 -4.797970e-01 5.658984e-01 4.289844e-01
3.570000e+09 5.714476e-01 4.282743e-01 3.999975e-01 -4.792258e-01 3.999975e-01 -4.792260e-01 5.713860e-01 4.280483e-01
3.605000e+09 5.768952e-01 4.272809e-01 3.945000e-01 -4.785974e-01 3.945001e-01 -4.785976e-01 5.768331e-01 4.270532e-01
3.640000e+09 5.823020e-01 4.262296e-01 3.890450e-01 -4.779125e-01 3.890451e-01 -4.779127e-01 5.822394e-01 4.260002e-01
3.675000e+09 5.876677e-01 4.251213e-01 3.836328e-01 -4.771722e-01 3.836328e-01 -4.771724e-01 5.876045e-01 4.248903e-01
3.710000e+09 5.929920e-01 4.239572e-01 3.782634e-01 -4.763776e-01 3.782635e-01 -4.763778e-01 5.929283e-01 4.237245e-01
3.745000e+09 5.982748e-01 4.227381e-01 3.729370e-01 -4.755296e-01 3.729371e-01 -4.755298e-01 5.982105e-01 4.225037e-01
3.780000e+09 6.035156e-01 4.214651e-01 3.676539e-01 -4.746292e-01 3.676540e-01 -4.746294e-01 6.034508e-01 4.212290e-01
3.815000e+09 6.087144e-01 4.201392e-01 3.624141e-01 -4.736774e-01 3.624142e-01 -4.736777e-01 6.086491e-01 4.199014e-01
3.850000e+09 6.138710e-01 4.187612e-01 3.572178e-01 -4.726753e-01 3.572179e-01 -4.726755e-01 6.138050e-01 4.185217e-01
3.885000e+09 6.189850e-01 4.173322e-01 3.520651e-01 -4.716236e-01 3.520652e-01 -4.716238e-01 6.189185e-01 4.170910e-01
3.920000e+09 6.240563e-01 4.158531e-01 3.469562e-01 -4.705234e-01 3.469563e-01 -4.705236e-01 6.239893e-01 4.156101e-01
3.955000e+09 6.290848e-01 4.143248e-01 3.418911e-01 -4.693756e-01 3.418912e-01 -4.693759e-01 6.290173e-01 4.140801e-01
3.990000e+09 6.340703e-01 4.127483e-01 3.368699e-01 -4.681812e-01 3.368700e-01 -4.681814e-01 6.340022e-01 4.125019e-01
4.025000e+09 6.390126e-01 4.111245e-01 3.318928e-01 -4.669409e-01 3.318929e-01 -4.669412e-01 6.389440e-01 4.108763e-01
4.060000e+09 6.439116e-01 4.094543e-01 3.269598e-01 -4.656559e-01 3.269599e-01 -4.656561e-01 6.438424e-01 4.092043e-01
4.095000e+09 6.487670e-01 4.077386e-01 3.220710e-01 -4.643268e-01 3.220710e-01 -4.643271e-01 6.486973e-01 4.074868e-01
4.130000e+09 6.535789e-01 4.059783e-01 3.172264e-01 -4.629547e-01 3.172265e-01 -4.629549e-01 6.535086e-01 4.057247e-01
4.165000e+09 6.583471e-01 4.041743e-01 3.124262e-01 -4.615403e-01 3.124263e-01 -4.615406e-01 6.582762e-01 4.039189e-01
4.200000e+09 6.630714e-01 4.023274e-01 3.076703e-01 -4.600847e-01 3.076704e-01 -4.600849e-01 6.630000e-01 4.020702e-01
4.235000e+09 6.677518e-01 4.004385e-01 3.029588e-01 -4.585885e-01 3.029589e-01 -4.585887e-01 6.676798e-01 4.001795e-01
4.270000e+09 6.723882e-01 3.985086e-01 2.982918e-01 -4.570526e-01 2.982919e-01 -4.570529e-01 6.723157e-01 3.982477e-01
4.305000e+09 6.769805e-01 3.965384e-01 2.936693e-01 -4.554780e-01 2.936693e-01 -4.554782e-01 6.769074e-01 3.962756e-01
4.340000e+09 6.815287e-01 3.945287e-01 2.890912e-01 -4.538653e-01 2.890913e-01 -4.538656e-01 6.814550e-01 3.942642e-01
4.375000e+09 6.860326e-01 3.924805e-01 2.845576e-01 -4.522155e-01 2.845577e-01 -4.522158e-01 6.859583e-01 3.922141e-01
4.410000e+09 6.904922e-01 3.903946e-01 2.800685e-01 -4.505293e-01 2.800686e-01 -4.505296e-01 6.904174e-01 3.901263e-01
4.445000e+09 6.949076e-01 3.882718e-01 2.756239e-01 -4.488076e-01 2.756240e-01 -4.488079e-01 6.948321e-01 3.880016e-01
4.480000e+09 6.992785e-01 3.861128e-01 2.712238e-01 -4.470511e-01 2.712239e-01 -4.470514e-01 6.992025e-01 3.858408e-01
4.515000e+09 7.036052e-01 3.839186e-01 2.668681e-01 -4.452607e-01 2.668682e-01 -4.452610e-01 7.035285e-01 3.836447e-01
4.550000e+09 7.078874e-01 3.816899e-01 2.625568e-01 -4.434371e-01 2.625569e-01 -4.434373e-01 7.078101e-01 3.814141e-01
4.585000e+09 7.121253e-01 3.794276e-01 2.582900e-01 -4.415810e-01 2.582901e-01 -4.415813e-01 7.120474e-01 3.791498e-01
4.620000e+09 7.163188e-01 3.771323e-01 2.540674e-01 -4.396933e-01 2.540675e-01 -4.396935e-01 7.162402e-01 3.768526e-01
4.655000e+09 7.204679e-01 3.748049e-01 2.498892e-01 -4.377746e-01 2.498893e-01 -4.377749e-01 7.203887e-01 3.745233e-01
4.690000e+09 7.245727e-01 3.724462e-01 2.457552e-01 -4.358258e-01 2.457553e-01 -4.358261e-01 7.244929e-01 3.721626e-01
4.725000e+09 7.286331e-01 3.700569e-01 2.416653e-01 -4.338476e-01 2.416654e-01 -4.338479e-01 7.285527e-01 3.697714e-01
4.760000e+09 7.326493e-01 3.676378e-01 2.376195e-01 -4.318407e-01 2.376196e-01 -4.318410e-01 7.325682e-01 3.673504e-01
4.795000e+09 7.366213e-01 3.651896e-01 2.336178e-01 -4.298058e-01 2.336179e-01 -4.298061e-01 7.365395e-01 3.649002e-01
4.830000e+09 7.405491e-01 3.627131e-01 2.296600e-01 -4.277437e-01 2.296601e-01 -4.277440e-01 7.404667e-01 3.624218e-01
4.865000e+09 7.444328e-01 3.602091e-01 2.257459e-01 -4.256550e-01 2.257460e-01 -4.256553e-01 7.443497e-01 3.599158e-01
4.900000e+09 7.482725e-01 3.576781e-01 2.218757e-01 -4.235405e-01 2.218758e-01 -4.235408e-01 7.481887e-01 3.573829e-01
4.935000e+09 7.520682e-01 3.551211e-01 2.180490e-01 -4.214008e-01 2.180491e-01 -4.214011e-01 7.519837e-01 3.548239e-01
4.970000e+09 7.558201e-01 3.525386e-01 2.142658e-01 -4.192367e-01 2.142659e-01 -4.192370e-01 7.557349e-01 3.522394e-01
5.005000e+09 7.595282e-01 3.499315e-01 2.105260e-01 -4.170488e-01 2.105261e-01 -4.170491e-01 7.594423e-01 3.496303e-01
5.040000e+09 7.631927e-01 3.473003e-01 2.068295e-01 -4.148378e-01 2.068296e-01 -4.148381e-01 7.631060e-01 3.469971e-01
5.075000e+09 7.668136e-01 3.446458e-01 2.031761e-01 -4.126043e-01 2.031762e-01 -4.126046e-01 7.667262e-01 3.443406e-01
5.110000e+09 7.703911e-01 3.419687e-01 1.995657e-01 -4.103490e-01 1.995658e-01 -4.103493e-01 7.703030e-01 3.416615e-01
5.145000e+09 7.739253e-01 3.392696e-01 1.959981e-01 -4.080726e-01 1.959982e-01 -4.080729e-01 7.738365e-01 3.389605e-01
5.180000e+09 7.774164e-01 3.365493e-01 1.924731e-01 -4.057756e-01 1.924732e-01 -4.057760e-01 7.773268e-01 3.362381e-01
5.215000e+09 7.808644e-01 3.338083e-01 1.889907e-01 -4.034588e-01 1.889908e-01 -4.034591e-01 7.807741e-01 3.334951e-01
5.250000e+09 7.842696e-01 3.310473e-01 1.855507e-01 -4.011227e-01 1.855508e-01 -4.011231e-01 7.841785e-01 3.307321e-01
5.285000e+09 7.876321e-01 3.282671e-01 1.821528e-01 -3.987680e-01 1.821529e-01 -3.987683e-01 7.875402e-01 3.279499e-01
5.320000e+09 7.909520e-01 3.254681e-01 1.787969e-01 -3.963953e-01 1.787970e-01 -3.963956e-01 7.908593e-01 3.251489e-01
5.355000e+09 7.942296e-01 3.226511e-01 1.754829e-01 -3.940051e-01 1.754830e-01 -3.940054e-01 7.941361e-01 3.223298e-01
5.390000e+09 7.974650e-01 3.198166e-01 1.722105e-01 -3.915981e-01 1.722106e-01 -3.915984e-01 7.973706e-01 3.194934e-01
5.425000e+09 8.006584e-01 3.169654e-01 1.689795e-01 -3.891748e-01 1.689796e-01 -3.891751e-01 8.005632e-01 3.166401e-01
5.460000e+09 8.038099e-01 3.140979e-01 1.657898e-01 -3.867359e-01 1.657899e-01 -3.867362e-01 8.037139e-01 3.137705e-01
5.495000e+09 8.069198e-01 3.112148e-01 1.626411e-01 -3.842818e-01 1.626412e-01 -3.842821e-01 8.068230e-01 3.108854e-01
5.530000e+09 8.099883e-01 3.083166e-01 1.595332e-01 -3.818132e-01 1.595333e-01 -3.818136e-01 8.098906e-01 3.079852e-01
5.565000e+09 8.130156e-01 3.054040e-01 1.564659e-01 -3.793307e-01 1.564660e-01 -3.793310e-01 8.129171e-01 3.050706e-01
5.600000e+09 8.160019e-01 3.024776e-01 1.534391e-01 -3.768347e-01 1.534392e-01 -3.768350e-01 8.159025e-01 3.021421e-01
5.635000e+09 8.189475e-01 2.995378e-01 1.504524e-01 -3.743257e-01 1.504525e-01 -3.743261e-01 8.188471e-01 2.992003e-01
5.670000e+09 8.218525e-01 2.965853e-01 1.475056e-01 -3.718045e-01 1.475057e-01 -3.718048e-01 8.217512e-01 2.962458e-01
5.705000e+09 8.247171e-01 2.936205e-01 1.445985e-01 -3.692713e-01 1.445986e-01 -3.692716e-01 8.246149e-01 2.932790e-01
5.740000e+09 8.275417e-01 2.906442e-01 1.417309e-01 -3.667268e-01 1.417310e-01 -3.667272e-01 8.274386e-01 2.903006e-01
5.775000e+09 8.303264e-01 2.876566e-01 1.389026e-01 -3.641716e-01 1.389027e-01 -3.641719e-01 8.302224e-01 2.873110e-01
5.810000e+09 8.330716e-01 2.846585e-01 1.361132e-01 -3.616059e-01 1.361133e-01 -3.616063e-01 8.329666e-01 2.843108e-01
5.845000e+09 8.357774e-01 2.816503e-01 1.333625e-01 -3.590305e-01 1.333626e-01 -3.590308e-01 8.356715e-01 2.813006e-01
5.880000e+09 8.384441e-01 2.786325e-01 1.306503e-01 -3.564457e-01 1.306504e-01 -3.564460e-01 8.383372e-01 2.782807e-01
5.915000e+09 8.410720e-01 2.756055e-01 1.279763e-01 -3.538520e-01 1.279764e-01 -3.538523e-01 8.409641e-01 2.752518e-01
5.950000e+09 8.436613e-01 2.725700e-01 1.253403e-01 -3.512499e-01 1.253403e-01 -3.512502e-01 8.435525e-01 2.722143e-01
5.985000e+09 8.462123e-01 2.695264e-01 1.227419e-01 -3.486399e-01 1.227420e-01 -3.486402e-01 8.461025e-01 2.691686e-01
6.020000e+09 8.487254e-01 2.664752e-01 1.201809e-01 -3.460223e-01 1.201810e-01 -3.460226e-01 8.486145e-01 2.661153e-01
6.055000e+09 8.512006e-01 2.634167e-01 1.176571e-01 -3.433977e-01 1.176572e-01 -3.433980e-01 8.510888e-01 2.630548e-01
6.090000e+09 8.536385e-01 2.603515e-01 1.151702e-01 -3.407665e-01 1.151703e-01 -3.407668e-01 8.535256e-01 2.599876e-01
6.125000e+09 8.560391e-01 2.572801e-01 1.127198e-01 -3.381291e-01 1.127199e-01 -3.381294e-01 8.559252e-01 2.569142e-01
6.160000e+09 8.584029e-01 2.542028e-01 1.103058e-01 -3.354859e-01 1.103058e-01 -3.354863e-01 8.582879e-01 2.538349e-01
6.195000e+09 8.607301e-01 2.511201e-01 1.079277e-01 -3.328374e-01 1.079278e-01 -3.328377e-01 8.606141e-01 2.507502e-01
6.230000e+09 8.630209e-01 2.480325e-01 1.055854e-01 -3.301839e-01 1.055855e-01 -3.301843e-01 8.629039e-01 2.476605e-01
6.265000e+09 8.652758e-01 2.449402e-01 1.032785e-01 -3.275259e-01 1.032786e-01 -3.275262e-01 8.651577e-01 2.445662e-01
6.300000e+09 8.674950e-01 2.418438e-01 1.010068e-01 -3.248637e-01 1.010069e-01 -3.248640e-01 8.673758e-01 2.414678e-01
6.335000e+09 8.696788e-01 2.387436e-01 9.876990e-02 -3.221977e-01 9.876999e-02 -3.221980e-01 8.695585e-01 2.383656e-01
6.370000e+09 8.718275e-01 2.356401e-01 9.656757e-02 -3.195283e-01 9.656766e-02 -3.195286e-01 8.717060e-01 2.352600e-01
6.405000e+09 8.739414e-01 2.325335e-01 9.439949e-02 -3.168558e-01 9.439957e-02 -3.168561e-01 8.738189e-01 2.321515e-01
6.440000e+09 8.760209e-01 2.294243e-01 9.226536e-02 -3.141807e-01 9.226544e-02 -3.141810e-01 8.758972e-01 2.290403e-01
6.475000e+09 8.780662e-01 2.263128e-01 9.016488e-02 -3.115032e-01 9.016496e-02 -3.115035e-01 8.779414e-01 2.259268e-01
6.510000e+09 8.800777e-01 2.231995e-01 8.809774e-02 -3.088237e-01 8.809782e-02 -3.088240e-01 8.799517e-01 2.228115e-01
6.545000e+09 8.820557e-01 2.200845e-01 8.606363e-02 -3.061425e-01 8.606371e-02 -3.061428e-01 8.819285e-01 2.196945e-01
6.580000e+09 8.840004e-01 2.169684e-01 8.406225e-02 -3.034600e-01 8.406233e-02 -3.034603e-01 8.838721e-01 2.165764e-01
6.615000e+09 8.859123e-01 2.138513e-01 8.209329e-02 -3.007764e-01 8.209337e-02 -3.007768e-01 8.857827e-01 2.134574e-01
6.650000e+09 8.877916e-01 2.107337e-01 8.015643e-02 -2.980922e-01 8.015651e-02 -2.980925e-01 8.876609e-01 2.103378e-01
6.685000e+09 8.896387e-01 2.076158e-01 7.825137e-02 -2.954075e-01 7.825145e-02 -2.954078e-01 8.895068e-01 2.072179e-01
6.720000e+09 8.914539e-01 2.044979e-01 7.637779e-02 -2.927227e-01 7.637787e-02 -2.927230e-01 8.913207e-01 2.040981e-01
6.755000e+09 8.932375e-01 2.013804e-01 7.453538e-02 -2.900381e-01 7.453546e-02 -2.900384e-01 8.931031e-01 2.009786e-01
6.790000e+09 8.949899e-01 1.982635e-01 7.272382e-02 -2.873539e-01 7.272390e-02 -2.873543e-01 8.948542e-01 1.978597e-01
6.825000e+09 8.967113e-01 1.951475e-01 7.094280e-02 -2.846705e-01 7.094288e-02 -2.846708e-01 8.965744e-01 1.947418e-01
6.860000e+09 8.984021e-01 1.920327e-01 6.919201e-02 -2.819880e-01 6.919208e-02 -2.819884e-01 8.982640e-01 1.916251e-01
6.895000e+09 9.000627e-01 1.889194e-01 6.747112e-02 -2.793068e-01 6.747120e-02 -2.793071e-01 8.999233e-01 1.885098e-01
6.930000e+09 9.016933e-01 1.858077e-01 6.577982e-02 -2.766271e-01 6.577990e-02 -2.766274e-01 9.015527e-01 1.853962e-01
6.965000e+09 9.032944e-01 1.826980e-01 6.411780e-02 -2.739491e-01 6.411788e-02 -2.739495e-01 9.031524e-01 1.822845e-01
7.000000e+09 9.048661e-01 1.795905e-01 6.248474e-02 -2.712731e-01 6.248482e-02 -2.712735e-01 9.047228e-01 1.791751e-01
7.035000e+09 9.064089e-01 1.764854e-01 6.088032e-02 -2.685993e-01 6.088040e-02 -2.685997e-01 9.062643e-01 1.760681e-01
7.070000e+09 9.079231e-01 1.733830e-01 5.930423e-02 -2.659280e-01 5.930431e-02 -2.659283e-01 9.077772e-01 1.729637e-01
7.105000e+09 9.094089e-01 1.702834e-01 5.775616e-02 -2.632592e-01 5.775623e-02 -2.632596e-01 9.092617e-01 1.698623e-01
7.140000e+09 9.108669e-01 1.671869e-01 5.623578e-02 -2.605933e-01 5.623585e-02 -2.605937e-01 9.107183e-01 1.667639e-01
7.175000e+09 9.122971e-01 1.640937e-01 5.474278e-02 -2.579305e-01 5.474285e-02 -2.579308e-01 9.121472e-01 1.636687e-01
7.210000e+09 9.137001e-01 1.610040e-01 5.327685e-02 -2.552709e-01 5.327693e-02 -2.552712e-01 9.135488e-01 1.605771e-01
7.245000e+09 9.150761e-01 1.579179e-01 5.183769e-02 -2.526147e-01 5.183776e-02 -2.526150e-01 9.149235e-01 1.574891e-01
7.280000e+09 9.164254e-01 1.548356e-01 5.042496e-02 -2.499621e-01 5.042503e-02 -2.499625e-01 9.162714e-01 1.544050e-01
7.315000e+09 9.177484e-01 1.517574e-01 4.903837e-02 -2.473133e-01 4.903845e-02 -2.473137e-01 9.175930e-01 1.513249e-01
7.350000e+09 9.190454e-01 1.486833e-01 4.767761e-02 -2.446685e-01 4.767768e-02 -2.446688e-01 9.188886e-01 1.482490e-01
7.385000e+09 9.203167e-01 1.456136e-01 4.634236e-02 -2.420277e-01 4.634244e-02 -2.420280e-01 9.201585e-01 1.451774e-01
7.420000e+09 9.215627e-01 1.425484e-01 4.503233e-02 -2.393912e-01 4.503240e-02 -2.393915e-01 9.214031e-01 1.421103e-01
7.455000e+09 9.227835e-01 1.394878e-01 4.374720e-02 -2.367591e-01 4.374727e-02 -2.367594e-01 9.226225e-01 1.390479e-01
7.490000e+09 9.239797e-01 1.364319e-01 4.248666e-02 -2.341315e-01 4.248673e-02 -2.341319e-01 9.238173e-01 1.359902e-01
7.525000e+09 9.251514e-01 1.333810e-01 4.125043e-02 -2.315086e-01 4.125050e-02 -2.315090e-01 9.249876e-01 1.329374e-01
7.560000e+09 9.262991e-01 1.303351e-01 4.003819e-02 -2.288905e-01 4.003827e-02 -2.288909e-01 9.261338e-01 1.298897e-01
7.595000e+09 9.274229e-01 1.272943e-01 3.884966e-02 -2.262773e-01 3.884973e-02 -2.262777e-01 9.272562e-01 1.268471e-01
7.630000e+09 9.285233e-01 1.242588e-01 3.768452e-02 -2.236692e-01 3.768459e-02 -2.236695e-01 9.283551e-01 1.238097e-01
7.665000e+09 9.296005e-01 1.212286e-01 3.654250e-02 -2.210661e-01 3.654257e-02 -2.210665e-01 9.294308e-01 1.207777e-01
7.700000e+09 9.306548e-01 1.182038e-01 3.542329e-02 -2.184684e-01 3.542336e-02 -2.184687e-01 9.304836e-01 1.177512e-01
7.735000e+09 9.316866e-01 1.151846e-01 3.432660e-02 -2.158759e-01 3.432667e-02 -2.158763e-01 9.315139e-01 1.147302e-01
7.770000e+09 9.326960e-01 1.121710e-01 3.325216e-02 -2.132889e-01 3.325223e-02 -2.132893e-01 9.325218e-01 1.117148e-01
7.805000e+09 9.336835e-01 1.091631e-01 3.219966e-02 -2.107074e-01 3.219973e-02 -2.107078e-01 9.335078e-01 1.087051e-01
7.840000e+09 9.346494e-01 1.061610e-01 3.116884e-02 -2.081315e-01 3.116891e-02 -2.081319e-01 9.344722e-01 1.057012e-01
7.875000e+09 9.355938e-01 1.031647e-01 3.015941e-02 -2.055613e-01 3.015948e-02 -2.055616e-01 9.354151e-01 1.027031e-01
7.910000e+09 9.365171e-01 1.001743e-01 2.917108e-02 -2.029967e-01 2.917115e-02 -2.029971e-01 9.363369e-01 9.971098e-02
7.945000e+09 9.374197e-01 9.718980e-02 2.820360e-02 -2.004380e-01 2.820367e-02 -2.004384e-01 9.372379e-01 9.672477e-02
7.980000e+09 9.383017e-01 9.421133e-02 2.725668e-02 -1.978851e-01 2.725675e-02 -1.978855e-01 9.381183e-01 9.374456e-02
8.015000e+09 9.391634e-01 9.123890e-02 2.633007e-02 -1.953382e-01 2.633014e-02 -1.953385e-01 9.389785e-01 9.077040e-02
8.050000e+09 9.400052e-01 8.827255e-02 2.542348e-02 -1.927971e-01 2.542355e-02 -1.927975e-01 9.398187e-01 8.780232e-02
8.085000e+09 9.408272e-01 8.531229e-02 2.453666e-02 -1.902621e-01 2.453673e-02 -1.902624e-01 9.406392e-01 8.484035e-02
8.120000e+09 9.416298e-01 8.235817e-02 2.366936e-02 -1.877330e-01 2.366943e-02 -1.877334e-01 9.414402e-01 8.188451e-02
8.155000e+09 9.424132e-01 7.941020e-02 2.282131e-02 -1.852101e-01 2.282138e-02 -1.852104e-01 9.422220e-01 7.893484e-02
8.190000e+09 9.431778e-01 7.646839e-02 2.199226e-02 -1.826932e-01 2.199233e-02 -1.826935e-01 9.429850e-01 7.599134e-02
8.225000e+09 9.439236e-01 7.353276e-02 2.118196e-02 -1.801824e-01 2.118203e-02 -1.801828e-01 9.437292e-01 7.305402e-02
8.260000e+09 9.446511e-01 7.060332e-02 2.039018e-02 -1.776777e-01 2.039025e-02 -1.776781e-01 9.444551e-01 7.012289e-02
8.295000e+09 9.453604e-01 6.768006e-02 1.961666e-02 -1.751792e-01 1.961673e-02 -1.751795e-01 9.451627e-01 6.719796e-02
8.330000e+09 9.460518e-01 6.476297e-02 1.886116e-02 -1.726868e-01 1.886124e-02 -1.726871e-01 9.458525e-01 6.427921e-02
8.365000e+09 9.467255e-01 6.185206e-02 1.812346e-02 -1.702005e-01 1.812354e-02 -1.702009e-01 9.465246e-01 6.136664e-02
8.400000e+09 9.473818e-01 5.894731e-02 1.740333e-02 -1.677204e-01 1.740340e-02 -1.677208e-01 9.471792e-01 5.846024e-02
8.435000e+09 9.480208e-01 5.604870e-02 1.670053e-02 -1.652464e-01 1.670060e-02 -1.652468e-01 9.478167e-01 5.555998e-02
8.470000e+09 9.486430e-01 5.315621e-02 1.601484e-02 -1.627785e-01 1.601492e-02 -1.627789e-01 9.484371e-01 5.266585e-02
8.505000e+09 9.492483e-01 5.026981e-02 1.534605e-02 -1.603168e-01 1.534612e-02 -1.603172e-01 9.490408e-01 4.977783e-02
8.540000e+09 9.498371e-01 4.738948e-02 1.469394e-02 -1.578612e-01 1.469401e-02 -1.578615e-01 9.496280e-01 4.689588e-02
8.575000e+09 9.504097e-01 4.451518e-02 1.405830e-02 -1.554116e-01 1.405837e-02 -1.554120e-01 9.501989e-01 4.401996e-02
8.610000e+09 9.509661e-01 4.164687e-02 1.343892e-02 -1.529681e-01 1.343899e-02 -1.529685e-01 9.507536e-01 4.115005e-02
8.645000e+09 9.515066e-01 3.878452e-02 1.283560e-02 -1.505306e-01 1.283568e-02 -1.505310e-01 9.512924e-01 3.828610e-02
8.680000e+09 9.520314e-01 3.592808e-02 1.224815e-02 -1.480991e-01 1.224822e-02 -1.480995e-01 9.518155e-01 3.542807e-02
8.715000e+09 9.525407e-01 3.307750e-02 1.167636e-02 -1.456736e-01 1.167644e-02 -1.456740e-01 9.523231e-01 3.257591e-02
8.750000e+09 9.530347e-01 3.023273e-02 1.112006e-02 -1.432540e-01 1.112013e-02 -1.432544e-01 9.528154e-01 2.972957e-02
8.785000e+09 9.535135e-01 2.739372e-02 1.057905e-02 -1.408403e-01 1.057912e-02 -1.408407e-01 9.532925e-01 2.688899e-02
8.820000e+09 9.539774e-01 2.456042e-02 1.005315e-02 -1.384324e-01 1.005323e-02 -1.384328e-01 9.537547e-01 2.405413e-02
8.855000e+09 9.544266e-01 2.173275e-02 9.542201e-03 -1.360303e-01 9.542278e-03 -1.360307e-01 9.542021e-01 2.122491e-02
8.890000e+09 9.548611e-01 1.891067e-02 9.046016e-03 -1.336340e-01 9.046094e-03 -1.336344e-01 9.546349e-01 1.840128e-02
8.925000e+09 9.552812e-01 1.609410e-02 8.564435e-03 -1.312434e-01 8.564513e-03 -1.312438e-01 9.550533e-01 1.558318e-02
8.960000e+09 9.556870e-01 1.328299e-02 8.097293e-03 -1.288584e-01 8.097372e-03 -1.288588e-01 9.554574e-01 1.277053e-02
8.995000e+09 9.560787e-01 1.047725e-02 7.644436e-03 -1.264790e-01 7.644515e-03 -1.264794e-01 9.558474e-01 9.963270e-03
9.030000e+09 9.564565e-01 7.676819e-03 7.205709e-03 -1.241052e-01 7.205788e-03 -1.241056e-01 9.562233e-01 7.161325e-03
9.065000e+09 9.568204e-01 4.881624e-03 6.780965e-03 -1.217368e-01 6.781045e-03 -1.217372e-01 9.565855e-01 4.364623e-03
9.100000e+09 9.571706e-01 2.091588e-03 6.370062e-03 -1.193739e-01 6.370141e-03 -1.193743e-01 9.569340e-01 1.573088e-03
9.135000e+09 9.575073e-01 -6.933643e-04 5.972860e-03 -1.170163e-01 5.972940e-03 -1.170167e-01 9.572689e-01 -1.213356e-03
9.170000e+09 9.578306e-01 -3.473312e-03 5.589227e-03 -1.146639e-01 5.589308e-03 -1.146643e-01 9.575904e-01 -3.994789e-03
9.205000e+09 9.581406e-01 -6.248336e-03 5.219035e-03 -1.123168e-01 5.219116e-03 -1.123172e-01 9.578986e-01 -6.771290e-03
9.240000e+09 9.584374e-01 -9.018516e-03 4.862159e-03 -1.099749e-01 4.862240e-03 -1.099753e-01 9.581936e-01 -9.542940e-03
9.275000e+09 9.587211e-01 -1.178393e-02 4.518481e-03 -1.076380e-01 4.518563e-03 -1.076384e-01 9.584755e-01 -1.230982e-02
9.310000e+09 9.589919e-01 -1.454467e-02 4.187887e-03 -1.053062e-01 4.187969e-03 -1.053066e-01 9.587445e-01 -1.507202e-02
9.345000e+09 9.592498e-01 -1.730082e-02 3.870267e-03 -1.029792e-01 3.870349e-03 -1.029797e-01 9.590006e-01 -1.782961e-02
9.380000e+09 9.594950e-01 -2.005246e-02 3.565518e-03 -1.006572e-01 3.565601e-03 -1.006576e-01 9.592440e-01 -2.058269e-02
9.415000e+09 9.597275e-01 -2.279967e-02 3.273541e-03 -9.833994e-02 3.273624e-03 -9.834037e-02 9.594747e-01 -2.333133e-02
9.450000e+09 9.599474e-01 -2.554254e-02 2.994240e-03 -9.602742e-02 2.994323e-03 -9.602785e-02 9.596928e-01 -2.607563e-02
9.485000e+09 9.601549e-01 -2.828116e-02 2.727528e-03 -9.371954e-02 2.727611e-03 -9.371998e-02 9.598984e-01 -2.881567e-02
9.520000e+09 9.603499e-01 -3.101562e-02 2.473318e-03 -9.141625e-02 2.473401e-03 -9.141668e-02 9.600916e-01 -3.155153e-02
9.555000e+09 9.605326e-01 -3.374599e-02 2.231531e-03 -8.911745e-02 2.231615e-03 -8.911789e-02 9.602724e-01 -3.428330e-02
9.590000e+09 9.607030e-01 -3.647236e-02 2.002094e-03 -8.682308e-02 2.002177e-03 -8.682353e-02 9.604409e-01 -3.701107e-02
9.625000e+09 9.608611e-01 -3.919482e-02 1.784935e-03 -8.453307e-02 1.785018e-03 -8.453352e-02 9.605972e-01 -3.973492e-02
9.660000e+09 9.610071e-01 -4.191346e-02 1.579989e-03 -8.224734e-02 1.580073e-03 -8.224779e-02 9.607414e-01 -4.245494e-02
9.695000e+09 9.611410e-01 -4.462835e-02 1.387197e-03 -7.996582e-02 1.387281e-03 -7.996627e-02 9.608734e-01 -4.517120e-02
9.730000e+09 9.612628e-01 -4.733958e-02 1.206503e-03 -7.768843e-02 1.206587e-03 -7.768888e-02 9.609933e-01 -4.788380e-02
9.765000e+09 9.613725e-01 -5.004723e-02 1.037855e-03 -7.541510e-02 1.037940e-03 -7.541556e-02 9.611012e-01 -5.059281e-02
9.800000e+09 9.614703e-01 -5.275138e-02 8.812097e-04 -7.314577e-02 8.812939e-04 -7.314623e-02 9.611971e-01 -5.329831e-02
9.835000e+09 9.615560e-01 -5.545211e-02 7.365240e-04 -7.088035e-02 7.366081e-04 -7.088081e-02 9.612809e-01 -5.600038e-02
9.870000e+09 9.616299e-01 -5.814950e-02 6.037618e-04 -6.861879e-02 6.038459e-04 -6.861925e-02 9.613529e-01 -5.869911e-02
9.905000e+09 9.616917e-01 -6.084363e-02 4.828912e-04 -6.636101e-02 4.829752e-04 -6.636148e-02 9.614129e-01 -6.139456e-02
9.940000e+09 9.617417e-01 -6.353456e-02 3.738849e-04 -6.410695e-02 3.739689e-04 -6.410742e-02 9.614609e-01 -6.408682e-02
9.975000e+09 9.617797e-01 -6.622237e-02 2.767201e-04 -6.185654e-02 2.768040e-04 -6.185701e-02 9.614971e-01 -6.677594e-02
1.001000e+10 9.618059e-01 -6.890713e-02 1.913785e-04 -5.960972e-02 1.914623e-04 -5.961019e-02 9.615213e-01 -6.946201e-02
1.004500e+10 9.618201e-01 -7.158891e-02 1.178464e-04 -5.736642e-02 1.179299e-04 -5.736690e-02 9.615336e-01 -7.214509e-02
1.008000e+10 9.618224e-01 -7.426778e-02 5.611415e-05 -5.512660e-02 5.619751e-05 -5.512708e-02 9.615340e-01 -7.482525e-02
1.011500e+10 9.618128e-01 -7.694378e-02 6.176679e-06 -5.289018e-02 6.259800e-06 -5.289066e-02 9.615224e-01 -7.750254e-02
1.015000e+10 9.617912e-01 -7.961700e-02 -3.196694e-05 -5.065711e-02 -3.188409e-05 -5.065760e-02 9.614989e-01 -8.017703e-02
1.018500e+10 9.617577e-01 -8.228747e-02 -5.831345e-05 -4.842735e-02 -5.823090e-05 -4.842784e-02 9.614634e-01 -8.284877e-02
1.022000e+10 9.617121e-01 -8.495526e-02 -7.285549e-05 -4.620084e-02 -7.277326e-05 -4.620133e-02 9.614160e-01 -8.551783e-02
1.025500e+10 9.616546e-01 -8.762042e-02 -7.558167e-05 -4.397753e-02 -7.549981e-05 -4.397802e-02 9.613565e-01 -8.818424e-02
1.029000e+10 9.615850e-01 -9.028299e-02 -6.647669e-05 -4.175738e-02 -6.639522e-05 -4.175787e-02 9.612849e-01 -9.084805e-02
1.032500e+10 9.615033e-01 -9.294302e-02 -4.552137e-05 -3.954034e-02 -4.544034e-05 -3.954084e-02 9.612013e-01 -9.350932e-02
1.036000e+10 9.614095e-01 -9.560054e-02 -1.269282e-05 -3.732638e-02 -1.261225e-05 -3.732688e-02 9.611055e-01 -9.616807e-02
1.039500e+10 9.613035e-01 -9.825560e-02 3.203554e-05 -3.511546e-02 3.211561e-05 -3.511597e-02 9.609976e-01 -9.882435e-02
1.043000e+10 9.611853e-01 -1.009082e-01 8.869384e-05 -3.290755e-02 8.877338e-05 -3.290806e-02 9.608774e-01 -1.014782e-01
1.046500e+10 9.610548e-01 -1.035584e-01 1.573156e-04 -3.070262e-02 1.573946e-04 -3.070313e-02 9.607449e-01 -1.041296e-01
1.050000e+10 9.609120e-01 -1.062063e-01 2.379379e-04 -2.850064e-02 2.380162e-04 -2.850115e-02 9.606001e-01 -1.067786e-01
1.053500e+10 9.607568e-01 -1.088517e-01 3.306006e-04 -2.630159e-02 3.306784e-04 -2.630211e-02 9.604430e-01 -1.094253e-01
1.057000e+10 9.605892e-01 -1.114948e-01 4.353472e-04 -2.410546e-02 4.354243e-04 -2.410598e-02 9.602733e-01 -1.120696e-01
1.060500e+10 9.604090e-01 -1.141356e-01 5.522237e-04 -2.191223e-02 5.523001e-04 -2.191275e-02 9.600911e-01 -1.147115e-01
1.064000e+10 9.602162e-01 -1.167740e-01 6.812793e-04 -1.972189e-02 6.813549e-04 -1.972241e-02 9.598964e-01 -1.173511e-01
1.067500e+10 9.600108e-01 -1.194101e-01 8.225656e-04 -1.753443e-02 8.226405e-04 -1.753496e-02 9.596889e-01 -1.199884e-01
1.071000e+10 9.597926e-01 -1.220439e-01 9.761371e-04 -1.534986e-02 9.762112e-04 -1.535039e-02 9.594688e-01 -1.226233e-01
1.074500e+10 9.595617e-01 -1.246753e-01 1.142050e-03 -1.316818e-02 1.142124e-03 -1.316871e-02 9.592358e-01 -1.252559e-01
1.078000e+10 9.593178e-01 -1.273043e-01 1.320365e-03 -1.098939e-02 1.320437e-03 -1.098992e-02 9.589899e-01 -1.278860e-01
1.081500e+10 9.590610e-01 -1.299310e-01 1.511141e-03 -8.813507e-03 1.511213e-03 -8.814040e-03 9.587311e-01 -1.305138e-01
1.085000e+10 9.587911e-01 -1.325552e-01 1.714443e-03 -6.640551e-03 1.714513e-03 -6.641086e-03 9.584592e-01 -1.331392e-01
1.088500e+10 9.585081e-01 -1.351770e-01 1.930334e-03 -4.470543e-03 1.930404e-03 -4.471080e-03 9.581741e-01 -1.357621e-01
1.092000e+10 9.582119e-01 -1.377963e-01 2.158883e-03 -2.303511e-03 2.158952e-03 -2.304050e-03 9.578759e-01 -1.383825e-01
1.095500e+10 9.579024e-01 -1.404131e-01 2.400156e-03 -1.394857e-04 2.400224e-03 -1.400266e-04 9.575643e-01 -1.410003e-01
1.099000e+10 9.575794e-01 -1.430272e-01 2.654223e-03 2.021494e-03 2.654290e-03 2.020951e-03 9.572393e-01 -1.436156e-01
1.102500e+10 9.572430e-01 -1.456388e-01 2.921154e-03 4.179384e-03 2.921220e-03 4.178840e-03 9.569008e-01 -1.462282e-01
1.106000e+10 9.568930e-01 -1.482476e-01 3.201021e-03 6.334137e-03 3.201086e-03 6.333592e-03 9.565487e-01 -1.488381e-01
1.109500e+10 9.565293e-01 -1.508537e-01 3.493895e-03 8.485699e-03 3.493959e-03 8.485152e-03 9.561830e-01 -1.514453e-01
1.113000e+10 9.561519e-01 -1.534569e-01 3.799849e-03 1.063401e-02 3.799912e-03 1.063346e-02 9.558035e-01 -1.540495e-01
1.116500e+10 9.557606e-01 -1.560572e-01 4.118956e-03 1.277901e-02 4.119017e-03 1.277846e-02 9.554101e-01 -1.566509e-01
1.120000e+10 9.553554e-01 -1.586545e-01 4.451288e-03 1.492061e-02 4.451349e-03 1.492006e-02 9.550028e-01 -1.592492e-01
1.123500e+10 9.549361e-01 -1.612487e-01 4.796918e-03 1.705876e-02 4.796978e-03 1.705821e-02 9.545815e-01 -1.618444e-01
1.127000e+10 9.545027e-01 -1.638396e-01 5.155919e-03 1.919336e-02 5.155977e-03 1.919280e-02 9.541460e-01 -1.644363e-01
1.130500e+10 9.540551e-01 -1.664273e-01 5.528362e-03 2.132432e-02 5.528419e-03 2.132377e-02 9.536963e-01 -1.670250e-01
1.134000e+10 9.535932e-01 -1.690115e-01 5.914318e-03 2.345156e-02 5.914374e-03 2.345100e-02 9.532323e-01 -1.696102e-01
1.137500e+10 9.531170e-01 -1.715921e-01 6.313857e-03 2.557496e-02 6.313912e-03 2.557441e-02 9.527539e-01 -1.721918e-01
1.141000e+10 9.526262e-01 -1.741690e-01 6.727047e-03 2.769443e-02 6.727102e-03 2.769388e-02 9.522610e-01 -1.747697e-01
1.144500e+10 9.521209e-01 -1.767422e-01 7.153957e-03 2.980985e-02 7.154010e-03 2.980930e-02 9.517536e-01 -1.773438e-01
1.148000e+10 9.516010e-01 -1.793113e-01 7.594650e-03 3.192111e-02 7.594703e-03 3.192055e-02 9.512316e-01 -1.799139e-01
1.151500e+10 9.510663e-01 -1.818763e-01 8.049190e-03 3.402807e-02 8.049242e-03 3.402751e-02 9.506948e-01 -1.824799e-01
1.155000e+10 9.505169e-01 -1.844371e-01 8.517639e-03 3.613061e-02 8.517690e-03 3.613006e-02 9.501432e-01 -1.850416e-01
1.158500e+10 9.499526e-01 -1.869934e-01 9.000054e-03 3.822860e-02 9.000103e-03 3.822804e-02 9.495768e-01 -1.875989e-01
1.162000e+10 9.493734e-01 -1.895452e-01 9.496490e-03 4.032188e-02 9.496539e-03 4.032132e-02 9.489955e-01 -1.901515e-01
1.165500e+10 9.487792e-01 -1.920921e-01 1.000700e-02 4.241031e-02 1.000705e-02 4.240976e-02 9.483991e-01 -1.926993e-01
1.169000e+10 9.481700e-01 -1.946341e-01 1.053164e-02 4.449374e-02 1.053168e-02 4.449318e-02 9.477877e-01 -1.952422e-01
1.172500e+10 9.475457e-01 -1.971709e-01 1.107044e-02 4.657200e-02 1.107049e-02 4.657145e-02 9.471612e-01 -1.977799e-01
1.176000e+10 9.469062e-01 -1.997024e-01 1.162345e-02 4.864493e-02 1.162350e-02 4.864438e-02 9.465196e-01 -2.003123e-01
1.179500e+10 9.462515e-01 -2.022283e-01 1.219071e-02 5.071236e-02 1.219076e-02 5.071180e-02 9.458628e-01 -2.028390e-01
1.183000e+10 9.455816e-01 -2.047484e-01 1.277225e-02 5.277410e-02 1.277230e-02 5.277355e-02 9.451907e-01 -2.053600e-01
1.186500e+10 9.448964e-01 -2.072626e-01 1.336810e-02 5.482997e-02 1.336815e-02 5.482942e-02 9.445033e-01 -2.078751e-01
1.190000e+10 9.441960e-01 -2.097706e-01 1.397828e-02 5.687979e-02 1.397833e-02 5.687924e-02 9.438007e-01 -2.103839e-01
1.193500e+10 9.434802e-01 -2.122721e-01 1.460281e-02 5.892335e-02 1.460285e-02 5.892281e-02 9.430827e-01 -2.128862e-01
1.197000e+10 9.427491e-01 -2.147670e-01 1.524170e-02 6.096047e-02 1.524174e-02 6.095992e-02 9.423494e-01 -2.153819e-01
1.200500e+10 9.420026e-01 -2.172550e-01 1.589495e-02 6.299092e-02 1.589499e-02 6.299038e-02 9.416007e-01 -2.178707e-01
1.204000e+10 9.412408e-01 -2.197358e-01 1.656257e-02 6.501450e-02 1.656261e-02 6.501396e-02 9.408367e-01 -2.203523e-01
1.207500e+10 9.404637e-01 -2.222092e-01 1.724454e-02 6.703099e-02 1.724459e-02 6.703046e-02 9.400574e-01 -2.228265e-01
1.211000e+10 9.396713e-01 -2.246750e-01 1.794086e-02 6.904018e-02 1.794090e-02 6.903965e-02 9.392627e-01 -2.252930e-01
1.214500e+10 9.388636e-01 -2.271329e-01 1.865150e-02 7.104184e-02 1.865155e-02 7.104131e-02 9.384528e-01 -2.277516e-01
1.218000e+10 9.380406e-01 -2.295825e-01 1.937643e-02 7.303573e-02 1.937648e-02 7.303520e-02 9.376276e-01 -2.302020e-01
1.221500e+10 9.372024e-01 -2.320238e-01 2.011562e-02 7.502162e-02 2.011567e-02 7.502109e-02 9.367872e-01 -2.326439e-01
1.225000e+10 9.363491e-01 -2.344563e-01 2.086902e-02 7.699927e-02 2.086907e-02 7.699875e-02 9.359316e-01 -2.350771e-01
1.228500e+10 9.354806e-01 -2.368797e-01 2.163658e-02 7.896845e-02 2.163663e-02 7.896793e-02 9.350609e-01 -2.375013e-01
1.232000e+10 9.345971e-01 -2.392940e-01 2.241823e-02 8.092890e-02 2.241828e-02 8.092838e-02 9.341752e-01 -2.399162e-01
1.235500e+10 9.336987e-01 -2.416986e-01 2.321391e-02 8.288037e-02 2.321396e-02 8.287986e-02 9.332745e-01 -2.423215e-01
1.239000e+10 9.327855e-01 -2.440934e-01 2.402352e-02 8.482262e-02 2.402358e-02 8.482211e-02 9.323590e-01 -2.447169e-01
1.242500e+10 9.318575e-01 -2.464780e-01 2.484700e-02 8.675538e-02 2.484705e-02 8.675488e-02 9.314287e-01 -2.471022e-01
1.246000e+10 9.309148e-01 -2.488522e-01 2.568422e-02 8.867840e-02 2.568428e-02 8.867790e-02 9.304838e-01 -2.494770e-01
1.249500e+10 9.299577e-01 -2.512156e-01 2.653509e-02 9.059142e-02 2.653515e-02 9.059093e-02 9.295244e-01 -2.518411e-01
1.253000e+10 9.289862e-01 -2.535680e-01 2.739948e-02 9.249418e-02 2.739954e-02 9.249369e-02 9.285507e-01 -2.541941e-01
1.256500e+10 9.280006e-01 -2.559091e-01 2.827726e-02 9.438641e-02 2.827732e-02 9.438593e-02 9.275627e-01 -2.565357e-01
1.260000e+10 9.270008e-01 -2.582385e-01 2.916829e-02 9.626784e-02 2.916835e-02 9.626737e-02 9.265607e-01 -2.588657e-01
1.263500e+10 9.259873e-01 -2.605560e-01 3.007241e-02 9.813823e-02 3.007248e-02 9.813776e-02 9.255448e-01 -2.611838e-01
1.267000e+10 9.249600e-01 -2.628613e-01 3.098945e-02 9.999729e-02 3.098953e-02 9.999682e-02 9.245153e-01 -2.634896e-01
1.270500e+10 9.239193e-01 -2.651540e-01 3.191925e-02 1.018448e-01 3.191932e-02 1.018443e-01 9.234723e-01 -2.657828e-01
1.274000e+10 9.228654e-01 -2.674340e-01 3.286160e-02 1.036804e-01 3.286168e-02 1.036799e-01 9.224160e-01 -2.680633e-01
1.277500e+10 9.217984e-01 -2.697008e-01 3.381631e-02 1.055039e-01 3.381640e-02 1.055034e-01 9.213468e-01 -2.703306e-01
1.281000e+10 9.207188e-01 -2.719541e-01 3.478317e-02 1.073150e-01 3.478326e-02 1.073146e-01 9.202647e-01 -2.725844e-01
1.284500e+10 9.196266e-01 -2.741938e-01 3.576194e-02 1.091135e-01 3.576203e-02 1.091131e-01 9.191702e-01 -2.748246e-01
1.288000e+10 9.185222e-01 -2.764195e-01 3.675238e-02 1.108991e-01 3.675248e-02 1.108987e-01 9.180635e-01 -2.770507e-01
1.291500e+10 9.174058e-01 -2.786310e-01 3.775425e-02 1.126715e-01 3.775435e-02 1.126711e-01 9.169449e-01 -2.792626e-01
1.295000e+10 9.162779e-01 -2.808278e-01 3.876727e-02 1.144305e-01 3.876738e-02 1.144301e-01 9.158146e-01 -2.814599e-01
1.298500e+10 9.151387e-01 -2.830099e-01 3.979116e-02 1.161759e-01 3.979128e-02 1.161755e-01 9.146731e-01 -2.836424e-01
1.302000e+10 9.139885e-01 -2.851769e-01 4.082564e-02 1.179074e-01 4.082576e-02 1.179070e-01 9.135205e-01 -2.858098e-01
1.305500e+10 9.128278e-01 -2.873286e-01 4.187039e-02 1.196248e-01 4.187052e-02 1.196244e-01 9.123574e-01 -2.879618e-01
1.309000e+10 9.116568e-01 -2.894646e-01 4.292508e-02 1.213278e-01 4.292523e-02 1.213274e-01 9.111841e-01 -2.900982e-01
1.312500e+10 9.104760e-01 -2.915848e-01 4.398940e-02 1.230162e-01 4.398955e-02 1.230158e-01 9.100010e-01 -2.922188e-01
1.316000e+10 9.092858e-01 -2.936890e-01 4.506298e-02 1.246898e-01 4.506314e-02 1.246894e-01 9.088084e-01 -2.943232e-01
1.319500e+10 9.080865e-01 -2.957769e-01 4.614546e-02 1.263484e-01 4.614563e-02 1.263480e-01 9.076068e-01 -2.964114e-01
1.323000e+10 9.068787e-01 -2.978482e-01 4.723647e-02 1.279917e-01 4.723665e-02 1.279914e-01 9.063966e-01 -2.984831e-01
1.326500e+10 9.056627e-01 -2.999029e-01 4.833561e-02 1.296197e-01 4.833580e-02 1.296194e-01 9.051783e-01 -3.005380e-01
1.330000e+10 9.044391e-01 -3.019407e-01 4.944248e-02 1.312321e-01 4.944268e-02 1.312317e-01 9.039523e-01 -3.025761e-01
1.333500e+10 9.032083e-01 -3.039614e-01 5.055666e-02 1.328287e-01 5.055687e-02 1.328284e-01 9.027192e-01 -3.045970e-01
1.337000e+10 9.019709e-01 -3.059649e-01 5.167771e-02 1.344094e-01 5.167793e-02 1.344091e-01 9.014793e-01 -3.066008e-01
1.340500e+10 9.007273e-01 -3.079510e-01 5.280518e-02 1.359741e-01 5.280541e-02 1.359737e-01 9.002333e-01 -3.085871e-01
1.344000e+10 8.994780e-01 -3.099196e-01 5.393862e-02 1.375225e-01 5.393887e-02 1.375222e-01 8.989817e-01 -3.105559e-01
1.347500e+10 8.982237e-01 -3.118706e-01 5.507755e-02 1.390546e-01 5.507781e-02 1.390543e-01 8.977250e-01 -3.125071e-01
1.351000e+10 8.969648e-01 -3.138039e-01 5.622148e-02 1.405703e-01 5.622175e-02 1.405701e-01 8.964638e-01 -3.144406e-01
1.354500e+10 8.957020e-01 -3.157194e-01 5.736991e-02 1.420695e-01 5.737019e-02 1.420693e-01 8.951986e-01 -3.163562e-01
1.358000e+10 8.944358e-01 -3.176171e-01 5.852232e-02 1.435522e-01 5.852262e-02 1.435519e-01 8.939300e-01 -3.182540e-01
1.361500e+10 8.931669e-01 -3.194969e-01 5.967820e-02 1.450181e-01 5.967851e-02 1.450179e-01 8.926587e-01 -3.201339e-01
1.365000e+10 8.918958e-01 -3.213588e-01 6.083699e-02 1.464674e-01 6.083732e-02 1.464672e-01 8.913852e-01 -3.219959e-01
1.368500e+10 8.906232e-01 -3.232028e-01 6.199814e-02 1.479001e-01 6.199849e-02 1.478998e-01 8.901102e-01 -3.238400e-01
1.372000e+10 8.893497e-01 -3.250290e-01 6.316111e-02 1.493160e-01 6.316147e-02 1.493157e-01 8.888344e-01 -3.256663e-01
1.375500e+10 8.880760e-01 -3.268373e-01 6.432530e-02 1.507152e-01 6.432568e-02 1.507150e-01 8.875583e-01 -3.274747e-01
1.379000e+10 8.868028e-01 -3.286280e-01 6.549014e-02 1.520979e-01 6.549054e-02 1.520976e-01 8.862827e-01 -3.292654e-01
1.382500e+10 8.855306e-01 -3.304011e-01 6.665504e-02 1.534639e-01 6.665546e-02 1.534637e-01 8.850082e-01 -3.310385e-01
1.386000e+10 8.842604e-01 -3.321567e-01 6.781938e-02 1.548136e-01 6.781982e-02 1.548133e-01 8.837355e-01 -3.327941e-01
1.389500e+10 8.829926e-01 -3.338950e-01 6.898256e-02 1.561468e-01 6.898302e-02 1.561466e-01 8.824654e-01 -3.345324e-01
1.393000e+10 8.817280e-01 -3.356162e-01 7.014396e-02 1.574639e-01 7.014444e-02 1.574637e-01 8.811984e-01 -3.362536e-01
1.396500e+10 8.804674e-01 -3.373205e-01 7.130295e-02 1.587650e-01 7.130345e-02 1.587648e-01 8.799354e-01 -3.379580e-01
1.400000e+10 8.792114e-01 -3.390083e-01 7.245889e-02 1.600502e-01 7.245941e-02 1.600500e-01 8.786771e-01 -3.396457e-01
