#   Hz   S  RI   R   50
!
0.000000e+00 3.971855e-02 0.000000e+00 9.527282e-01 0.000000e+00 9.527279e-01 0.000000e+00 3.975368e-02 0.000000e+00
3.500000e+07 3.981810e-02 9.219974e-03 9.526161e-01 -1.022007e-02 9.526159e-01 -1.022007e-02 3.985320e-02 9.216024e-03
7.000000e+07 4.011663e-02 1.843396e-02 9.522803e-01 -2.043274e-02 9.522800e-01 -2.043273e-02 4.015163e-02 1.842606e-02
1.050000e+08 4.061375e-02 2.763598e-02 9.517211e-01 -3.063062e-02 9.517208e-01 -3.063060e-02 4.064857e-02 2.762415e-02
1.400000e+08 4.130880e-02 3.682010e-02 9.509394e-01 -4.080638e-02 9.509392e-01 -4.080635e-02 4.134337e-02 3.680434e-02
1.750000e+08 4.220087e-02 4.598041e-02 9.499366e-01 -5.095275e-02 9.499363e-01 -5.095271e-02 4.223511e-02 4.596074e-02
2.100000e+08 4.328879e-02 5.511110e-02 9.487142e-01 -6.106256e-02 9.487139e-01 -6.106251e-02 4.332265e-02 5.508754e-02
2.450000e+08 4.457117e-02 6.420641e-02 9.472741e-01 -7.112875e-02 9.472738e-01 -7.112870e-02 4.460457e-02 6.417898e-02
2.800000e+08 4.604634e-02 7.326067e-02 9.456186e-01 -8.114441e-02 9.456183e-01 -8.114435e-02 4.607921e-02 7.322940e-02
3.150000e+08 4.771242e-02 8.226833e-02 9.437502e-01 -9.110277e-02 9.437499e-01 -9.110270e-02 4.774471e-02 8.223324e-02
3.500000e+08 4.956731e-02 9.122396e-02 9.416717e-01 -1.009972e-01 9.416715e-01 -1.009972e-01 4.959895e-02 9.118509e-02
3.850000e+08 5.160869e-02 1.001222e-01 9.393865e-01 -1.108214e-01 9.393862e-01 -1.108213e-01 5.163961e-02 1.000796e-01
4.200000e+08 5.383403e-02 1.089580e-01 9.368977e-01 -1.205691e-01 9.368975e-01 -1.205690e-01 5.386417e-02 1.089117e-01
4.550000e+08 5.624061e-02 1.177263e-01 9.342092e-01 -1.302343e-01 9.342089e-01 -1.302342e-01 5.626992e-02 1.176763e-01
4.900000e+08 5.882553e-02 1.264221e-01 9.313247e-01 -1.398113e-01 9.313245e-01 -1.398112e-01 5.885396e-02 1.263685e-01
5.250000e+08 6.158573e-02 1.350409e-01 9.282485e-01 -1.492946e-01 9.282483e-01 -1.492945e-01 6.161321e-02 1.349837e-01
5.600000e+08 6.451797e-02 1.435781e-01 9.249848e-01 -1.586790e-01 9.249846e-01 -1.586789e-01 6.454446e-02 1.435174e-01
5.950000e+08 6.761889e-02 1.520294e-01 9.215381e-01 -1.679594e-01 9.215379e-01 -1.679593e-01 6.764433e-02 1.519652e-01
6.300000e+08 7.088497e-02 1.603906e-01 9.179131e-01 -1.771313e-01 9.179129e-01 -1.771311e-01 7.090934e-02 1.603230e-01
6.650000e+08 7.431261e-02 1.686579e-01 9.141145e-01 -1.861900e-01 9.141143e-01 -1.861899e-01 7.433584e-02 1.685869e-01
7.000000e+08 7.789807e-02 1.768273e-01 9.101473e-01 -1.951315e-01 9.101471e-01 -1.951314e-01 7.792013e-02 1.767530e-01
7.350000e+08 8.163752e-02 1.848954e-01 9.060165e-01 -2.039519e-01 9.060163e-01 -2.039518e-01 8.165838e-02 1.848179e-01
7.700000e+08 8.552707e-02 1.928587e-01 9.017271e-01 -2.126475e-01 9.017269e-01 -2.126474e-01 8.554668e-02 1.927780e-01
8.050000e+08 8.956274e-02 2.007141e-01 8.972843e-01 -2.212151e-01 8.972841e-01 -2.212150e-01 8.958107e-02 2.006303e-01
8.400000e+08 9.374048e-02 2.084586e-01 8.926934e-01 -2.296515e-01 8.926932e-01 -2.296513e-01 9.375752e-02 2.083717e-01
8.750000e+08 9.805624e-02 2.160894e-01 8.879595e-01 -2.379539e-01 8.879593e-01 -2.379537e-01 9.807194e-02 2.159995e-01
9.100000e+08 1.025059e-01 2.236039e-01 8.830880e-01 -2.461198e-01 8.830878e-01 -2.461196e-01 1.025202e-01 2.235110e-01
9.450000e+08 1.070853e-01 2.309996e-01 8.780840e-01 -2.541468e-01 8.780838e-01 -2.541467e-01 1.070982e-01 2.309038e-01
9.800000e+08 1.117902e-01 2.382744e-01 8.729528e-01 -2.620331e-01 8.729527e-01 -2.620329e-01 1.118018e-01 2.381757e-01
1.015000e+09 1.166166e-01 2.454260e-01 8.676997e-01 -2.697767e-01 8.676995e-01 -2.697765e-01 1.166268e-01 2.453246e-01
1.050000e+09 1.215603e-01 2.524527e-01 8.623297e-01 -2.773760e-01 8.623296e-01 -2.773759e-01 1.215690e-01 2.523486e-01
1.085000e+09 1.266170e-01 2.593527e-01 8.568482e-01 -2.848298e-01 8.568480e-01 -2.848297e-01 1.266243e-01 2.592460e-01
1.120000e+09 1.317827e-01 2.661245e-01 8.512600e-01 -2.921369e-01 8.512599e-01 -2.921368e-01 1.317885e-01 2.660152e-01
1.155000e+09 1.370532e-01 2.727666e-01 8.455702e-01 -2.992964e-01 8.455701e-01 -2.992963e-01 1.370576e-01 2.726548e-01
1.190000e+09 1.424245e-01 2.792779e-01 8.397838e-01 -3.063075e-01 8.397837e-01 -3.063074e-01 1.424274e-01 2.791635e-01
1.225000e+09 1.478924e-01 2.856571e-01 8.339056e-01 -3.131697e-01 8.339055e-01 -3.131696e-01 1.478939e-01 2.855404e-01
1.260000e+09 1.534530e-01 2.919034e-01 8.279404e-01 -3.198826e-01 8.279403e-01 -3.198825e-01 1.534530e-01 2.917843e-01
1.295000e+09 1.591023e-01 2.980159e-01 8.218928e-01 -3.264460e-01 8.218926e-01 -3.264459e-01 1.591008e-01 2.978944e-01
1.330000e+09 1.648363e-01 3.039939e-01 8.157673e-01 -3.328599e-01 8.157672e-01 -3.328598e-01 1.648334e-01 3.038702e-01
1.365000e+09 1.706512e-01 3.098368e-01 8.095686e-01 -3.391243e-01 8.095685e-01 -3.391242e-01 1.706468e-01 3.097109e-01
1.400000e+09 1.765431e-01 3.155442e-01 8.033008e-01 -3.452396e-01 8.033007e-01 -3.452395e-01 1.765373e-01 3.154162e-01
1.435000e+09 1.825083e-01 3.211158e-01 7.969684e-01 -3.512059e-01 7.969683e-01 -3.512058e-01 1.825011e-01 3.209856e-01
1.470000e+09 1.885431e-01 3.265512e-01 7.905753e-01 -3.570238e-01 7.905753e-01 -3.570238e-01 1.885345e-01 3.264190e-01
1.505000e+09 1.946438e-01 3.318504e-01 7.841258e-01 -3.626940e-01 7.841257e-01 -3.626939e-01 1.946337e-01 3.317162e-01
1.540000e+09 2.008068e-01 3.370134e-01 7.776237e-01 -3.682170e-01 7.776236e-01 -3.682169e-01 2.007953e-01 3.368771e-01
1.575000e+09 2.070285e-01 3.420401e-01 7.710728e-01 -3.735936e-01 7.710727e-01 -3.735935e-01 2.070157e-01 3.419019e-01
1.610000e+09 2.133056e-01 3.469307e-01 7.644768e-01 -3.788248e-01 7.644767e-01 -3.788247e-01 2.132914e-01 3.467907e-01
1.645000e+09 2.196345e-01 3.516855e-01 7.578394e-01 -3.839114e-01 7.578393e-01 -3.839113e-01 2.196190e-01 3.515436e-01
1.680000e+09 2.260120e-01 3.563047e-01 7.511640e-01 -3.888544e-01 7.511639e-01 -3.888544e-01 2.259951e-01 3.561610e-01
1.715000e+09 2.324348e-01 3.607888e-01 7.444541e-01 -3.936550e-01 7.444540e-01 -3.936550e-01 2.324166e-01 3.606433e-01
1.750000e+09 2.388996e-01 3.651381e-01 7.377129e-01 -3.983143e-01 7.377128e-01 -3.983142e-01 2.388801e-01 3.649908e-01
1.785000e+09 2.454033e-01 3.693532e-01 7.309437e-01 -4.028334e-01 7.309436e-01 -4.028333e-01 2.453825e-01 3.692042e-01
1.820000e+09 2.519428e-01 3.734347e-01 7.241494e-01 -4.072136e-01 7.241494e-01 -4.072135e-01 2.519207e-01 3.732840e-01
1.855000e+09 2.585151e-01 3.773832e-01 7.173332e-01 -4.114562e-01 7.173332e-01 -4.114561e-01 2.584918e-01 3.772309e-01
1.890000e+09 2.651171e-01 3.811994e-01 7.104979e-01 -4.155624e-01 7.104979e-01 -4.155624e-01 2.650926e-01 3.810455e-01
1.925000e+09 2.717461e-01 3.848841e-01 7.036463e-01 -4.195338e-01 7.036463e-01 -4.195338e-01 2.717204e-01 3.847285e-01
1.960000e+09 2.783992e-01 3.884380e-01 6.967812e-01 -4.233716e-01 6.967812e-01 -4.233716e-01 2.783723e-01 3.882809e-01
1.995000e+09 2.850735e-01 3.918621e-01 6.899051e-01 -4.270772e-01 6.899051e-01 -4.270772e-01 2.850454e-01 3.917034e-01
2.030000e+09 2.917663e-01 3.951572e-01 6.830207e-01 -4.306521e-01 6.830207e-01 -4.306521e-01 2.917372e-01 3.949970e-01
2.065000e+09 2.984751e-01 3.983242e-01 6.761304e-01 -4.340978e-01 6.761303e-01 -4.340978e-01 2.984448e-01 3.981625e-01
2.100000e+09 3.051971e-01 4.013642e-01 6.692365e-01 -4.374157e-01 6.692364e-01 -4.374157e-01 3.051658e-01 4.012010e-01
2.135000e+09 3.119299e-01 4.042782e-01 6.623414e-01 -4.406073e-01 6.623414e-01 -4.406074e-01 3.118975e-01 4.041135e-01
2.170000e+09 3.186710e-01 4.070673e-01 6.554473e-01 -4.436742e-01 6.554473e-01 -4.436742e-01 3.186375e-01 4.069011e-01
2.205000e+09 3.254178e-01 4.097325e-01 6.485564e-01 -4.466179e-01 6.485564e-01 -4.466179e-01 3.253833e-01 4.095649e-01
2.240000e+09 3.321681e-01 4.122750e-01 6.416708e-01 -4.494398e-01 6.416708e-01 -4.494398e-01 3.321326e-01 4.121059e-01
2.275000e+09 3.389196e-01 4.146960e-01 6.347924e-01 -4.521416e-01 6.347924e-01 -4.521416e-01 3.388831e-01 4.145255e-01
2.310000e+09 3.456699e-01 4.169967e-01 6.279234e-01 -4.547247e-01 6.279233e-01 -4.547248e-01 3.456324e-01 4.168247e-01
2.345000e+09 3.524168e-01 4.191783e-01 6.210654e-01 -4.571908e-01 6.210654e-01 -4.571909e-01 3.523784e-01 4.190049e-01
2.380000e+09 3.591583e-01 4.212420e-01 6.142205e-01 -4.595414e-01 6.142205e-01 -4.595415e-01 3.591190e-01 4.210672e-01
2.415000e+09 3.658922e-01 4.231893e-01 6.073903e-01 -4.617781e-01 6.073903e-01 -4.617782e-01 3.658520e-01 4.230131e-01
2.450000e+09 3.726164e-01 4.250213e-01 6.005766e-01 -4.639024e-01 6.005765e-01 -4.639025e-01 3.725754e-01 4.248437e-01
2.485000e+09 3.793291e-01 4.267395e-01 5.937810e-01 -4.659160e-01 5.937809e-01 -4.659160e-01 3.792871e-01 4.265604e-01
2.520000e+09 3.860282e-01 4.283452e-01 5.870051e-01 -4.678203e-01 5.870051e-01 -4.678203e-01 3.859854e-01 4.281647e-01
2.555000e+09 3.927118e-01 4.298397e-01 5.802505e-01 -4.696169e-01 5.802505e-01 -4.696170e-01 3.926682e-01 4.296579e-01
2.590000e+09 3.993781e-01 4.312246e-01 5.735187e-01 -4.713075e-01 5.735187e-01 -4.713076e-01 3.993337e-01 4.310414e-01
2.625000e+09 4.060254e-01 4.325012e-01 5.668112e-01 -4.728936e-01 5.668112e-01 -4.728937e-01 4.059802e-01 4.323166e-01
2.660000e+09 4.126519e-01 4.336711e-01 5.601293e-01 -4.743767e-01 5.601293e-01 -4.743768e-01 4.126060e-01 4.334850e-01
2.695000e+09 4.192560e-01 4.347355e-01 5.534743e-01 -4.757585e-01 5.534743e-01 -4.757586e-01 4.192093e-01 4.345481e-01
2.730000e+09 4.258359e-01 4.356962e-01 5.468477e-01 -4.770405e-01 5.468477e-01 -4.770407e-01 4.257885e-01 4.355073e-01
2.765000e+09 4.323902e-01 4.365544e-01 5.402506e-01 -4.782243e-01 5.402506e-01 -4.782244e-01 4.323421e-01 4.363641e-01
2.800000e+09 4.389173e-01 4.373119e-01 5.336843e-01 -4.793115e-01 5.336843e-01 -4.793116e-01 4.388685e-01 4.371202e-01
2.835000e+09 4.454158e-01 4.379700e-01 5.271499e-01 -4.803035e-01 5.271499e-01 -4.803036e-01 4.453662e-01 4.377769e-01
2.870000e+09 4.518841e-01 4.385304e-01 5.206485e-01 -4.812020e-01 5.206485e-01 -4.812021e-01 4.518339e-01 4.383358e-01
2.905000e+09 4.583210e-01 4.389945e-01 5.141814e-01 -4.820084e-01 5.141814e-01 -4.820086e-01 4.582701e-01 4.387985e-01
2.940000e+09 4.647251e-01 4.393640e-01 5.077494e-01 -4.827245e-01 5.077494e-01 -4.827246e-01 4.646736e-01 4.391665e-01
2.975000e+09 4.710951e-01 4.396404e-01 5.013536e-01 -4.833516e-01 5.013536e-01 -4.833518e-01 4.710429e-01 4.394415e-01
3.010000e+09 4.774298e-01 4.398253e-01 4.949950e-01 -4.838914e-01 4.949950e-01 -4.838916e-01 4.773771e-01 4.396249e-01
3.045000e+09 4.837281e-01 4.399202e-01 4.886744e-01 -4.843454e-01 4.886744e-01 -4.843456e-01 4.836747e-01 4.397184e-01
3.080000e+09 4.899887e-01 4.399269e-01 4.823929e-01 -4.847151e-01 4.823929e-01 -4.847153e-01 4.899348e-01 4.397236e-01
3.115000e+09 4.962107e-01 4.398467e-01 4.761511e-01 -4.850020e-01 4.761511e-01 -4.850022e-01 4.961561e-01 4.396419e-01
3.150000e+09 5.023930e-01 4.396815e-01 4.699500e-01 -4.852077e-01 4.699500e-01 -4.852078e-01 5.023378e-01 4.394752e-01
3.185000e+09 5.085345e-01 4.394327e-01 4.637903e-01 -4.853336e-01 4.637903e-01 -4.853338e-01 5.084787e-01 4.392249e-01
3.220000e+09 5.146344e-01 4.391019e-01 4.576727e-01 -4.853813e-01 4.576728e-01 -4.853815e-01 5.145781e-01 4.388926e-01
3.255000e+09 5.206917e-01 4.386908e-01 4.515980e-01 -4.853522e-01 4.515981e-01 -4.853524e-01 5.206348e-01 4.384799e-01
3.290000e+09 5.267056e-01 4.382009e-01 4.455668e-01 -4.852479e-01 4.455669e-01 -4.852481e-01 5.266482e-01 4.379885e-01
3.325000e+09 5.326753e-01 4.376339e-01 4.395798e-01 -4.850698e-01 4.395799e-01 -4.850700e-01 5.326174e-01 4.374199e-01
3.360000e+09 5.386000e-01 4.369913e-01 4.336375e-01 -4.848194e-01 4.336376e-01 -4.848196e-01 5.385416e-01 4.367758e-01
3.395000e+09 5.444791e-01 4.362747e-01 4.277405e-01 -4.844982e-01 4.277406e-01 -4.844984e-01 5.444201e-01 4.360576e-01
3.430000e+09 5.503118e-01 4.354857e-01 4.218894e-01 -4.841076e-01 4.218895e-01 -4.841077e-01 5.502522e-01 4.352670e-01
3.465000e+09 5.560974e-01 4.346259e-01 4.160847e-01 -4.836490e-01 4.160847e-01 -4.836492e-01 5.560374e-01 4.344056e-01
3.500000e+09 5.618355e-01 4.336968e-01 4.103267e-01 -4.831239e-01 4.103268e-01 -4.831241e-01 5.617750e-01 4.334749e-01
3.535000e+09 5.675255e-01 4.327000e-01 4.046160e-01 -4.825337e-01 4.046161e-01 -4.825339e-01 5.674644e-01 4.324765e-01
3.570000e+09 5.731668e-01 4.316370e-01 3.989530e-01 -4.818798e-01 3.989530e-01 -4.818800e-01 5.731052e-01 4.314119e-01
3.605000e+09 5.787590e-01 4.305094e-01 3.933380e-01 -4.811636e-01 3.933380e-01 -4.811638e-01 5.786969e-01 4.302826e-01
3.640000e+09 5.843017e-01 4.293188e-01 3.877714e-01 -4.803866e-01 3.877714e-01 -4.803868e-01 5.842391e-01 4.290903e-01
3.675000e+09 5.897945e-01 4.280665e-01 3.822535e-01 -4.795500e-01 3.822535e-01 -4.795502e-01 5.897314e-01 4.278364e-01
3.710000e+09 5.952369e-01 4.267542e-01 3.767845e-01 -4.786552e-01 3.767846e-01 -4.786554e-01 5.951733e-01 4.265224e-01
3.745000e+09 6.006288e-01 4.253833e-01 3.713649e-01 -4.777036e-01 3.713649e-01 -4.777039e-01 6.005647e-01 4.251497e-01
3.780000e+09 6.059698e-01 4.239552e-01 3.659947e-01 -4.766966e-01 3.659948e-01 -4.766968e-01 6.059052e-01 4.237200e-01
3.815000e+09 6.112597e-01 4.224715e-01 3.606742e-01 -4.756354e-01 3.606743e-01 -4.756356e-01 6.111946e-01 4.222345e-01
3.850000e+09 6.164982e-01 4.209336e-01 3.554036e-01 -4.745213e-01 3.554037e-01 -4.745215e-01 6.164326e-01 4.206949e-01
3.885000e+09 6.216853e-01 4.193428e-01 3.501830e-01 -4.733557e-01 3.501831e-01 -4.733559e-01 6.216192e-01 4.191024e-01
3.920000e+09 6.268207e-01 4.177007e-01 3.450126e-01 -4.721397e-01 3.450126e-01 -4.721400e-01 6.267541e-01 4.174585e-01
3.955000e+09 6.319043e-01 4.160085e-01 3.398924e-01 -4.708748e-01 3.398925e-01 -4.708750e-01 6.318372e-01 4.157645e-01
3.990000e+09 6.369362e-01 4.142677e-01 3.348225e-01 -4.695620e-01 3.348226e-01 -4.695623e-01 6.368685e-01 4.140220e-01
4.025000e+09 6.419161e-01 4.124796e-01 3.298031e-01 -4.682027e-01 3.298031e-01 -4.682030e-01 6.418479e-01 4.122321e-01
4.060000e+09 6.468441e-01 4.106455e-01 3.248340e-01 -4.667981e-01 3.248341e-01 -4.667984e-01 6.467754e-01 4.103962e-01
4.095000e+09 6.517202e-01 4.087668e-01 3.199154e-01 -4.653493e-01 3.199155e-01 -4.653496e-01 6.516510e-01 4.085157e-01
4.130000e+09 6.565445e-01 4.068447e-01 3.150472e-01 -4.638576e-01 3.150473e-01 -4.638578e-01 6.564747e-01 4.065917e-01
4.165000e+09 6.613169e-01 4.048805e-01 3.102295e-01 -4.623240e-01 3.102295e-01 -4.623243e-01 6.612466e-01 4.046257e-01
4.200000e+09 6.660377e-01 4.028754e-01 3.054620e-01 -4.607498e-01 3.054621e-01 -4.607501e-01 6.659668e-01 4.026187e-01
4.235000e+09 6.707068e-01 4.008307e-01 3.007448e-01 -4.591361e-01 3.007449e-01 -4.591363e-01 6.706354e-01 4.005722e-01
4.270000e+09 6.753244e-01 3.987475e-01 2.960778e-01 -4.574839e-01 2.960779e-01 -4.574842e-01 6.752524e-01 3.984871e-01
4.305000e+09 6.798907e-01 3.966271e-01 2.914609e-01 -4.557944e-01 2.914610e-01 -4.557946e-01 6.798182e-01 3.963648e-01
4.340000e+09 6.844058e-01 3.944705e-01 2.868939e-01 -4.540686e-01 2.868940e-01 -4.540689e-01 6.843327e-01 3.942063e-01
4.375000e+09 6.888699e-01 3.922789e-01 2.823767e-01 -4.523076e-01 2.823768e-01 -4.523079e-01 6.887963e-01 3.920128e-01
4.410000e+09 6.932834e-01 3.900534e-01 2.779092e-01 -4.505124e-01 2.779093e-01 -4.505127e-01 6.932092e-01 3.897855e-01
4.445000e+09 6.976463e-01 3.877952e-01 2.734911e-01 -4.486841e-01 2.734912e-01 -4.486843e-01 6.975715e-01 3.875253e-01
4.480000e+09 7.019589e-01 3.855051e-01 2.691223e-01 -4.468236e-01 2.691224e-01 -4.468238e-01 7.018836e-01 3.852333e-01
4.515000e+09 7.062216e-01 3.831844e-01 2.648025e-01 -4.449319e-01 2.648026e-01 -4.449321e-01 7.061456e-01 3.829106e-01
4.550000e+09 7.104345e-01 3.808339e-01 2.605316e-01 -4.430099e-01 2.605318e-01 -4.430102e-01 7.103579e-01 3.805582e-01
4.585000e+09 7.145980e-01 3.784547e-01 2.563094e-01 -4.410587e-01 2.563095e-01 -4.410590e-01 7.145208e-01 3.781771e-01
4.620000e+09 7.187124e-01 3.760478e-01 2.521355e-01 -4.390791e-01 2.521356e-01 -4.390794e-01 7.186346e-01 3.757682e-01
4.655000e+09 7.227779e-01 3.736140e-01 2.480097e-01 -4.370720e-01 2.480098e-01 -4.370723e-01 7.226995e-01 3.733324e-01
4.690000e+09 7.267951e-01 3.711543e-01 2.439317e-01 -4.350383e-01 2.439318e-01 -4.350386e-01 7.267160e-01 3.708708e-01
4.725000e+09 7.307641e-01 3.686696e-01 2.399013e-01 -4.329790e-01 2.399014e-01 -4.329792e-01 7.306844e-01 3.683841e-01
4.760000e+09 7.346854e-01 3.661607e-01 2.359182e-01 -4.308947e-01 2.359183e-01 -4.308950e-01 7.346050e-01 3.658732e-01
4.795000e+09 7.385592e-01 3.636285e-01 2.319821e-01 -4.287864e-01 2.319822e-01 -4.287866e-01 7.384782e-01 3.633390e-01
4.830000e+09 7.423860e-01 3.610738e-01 2.280927e-01 -4.266548e-01 2.280928e-01 -4.266551e-01 7.423043e-01 3.607823e-01
4.865000e+09 7.461662e-01 3.584974e-01 2.242496e-01 -4.245007e-01 2.242497e-01 -4.245010e-01 7.460838e-01 3.582040e-01
4.900000e+09 7.499001e-01 3.559001e-01 2.204526e-01 -4.223250e-01 2.204527e-01 -4.223253e-01 7.498170e-01 3.556046e-01
4.935000e+09 7.535882e-01 3.532826e-01 2.167013e-01 -4.201283e-01 2.167014e-01 -4.201286e-01 7.535044e-01 3.529851e-01
4.970000e+09 7.572308e-01 3.506456e-01 2.129953e-01 -4.179114e-01 2.129954e-01 -4.179117e-01 7.571462e-01 3.503462e-01
5.005000e+09 7.608283e-01 3.479899e-01 2.093344e-01 -4.156750e-01 2.093345e-01 -4.156753e-01 7.607430e-01 3.476885e-01
5.040000e+09 7.643811e-01 3.453162e-01 2.057182e-01 -4.134198e-01 2.057183e-01 -4.134201e-01 7.642951e-01 3.450127e-01
5.075000e+09 7.678897e-01 3.426251e-01 2.021463e-01 -4.111465e-01 2.021464e-01 -4.111468e-01 7.678029e-01 3.423196e-01
5.110000e+09 7.713544e-01 3.399172e-01 1.986184e-01 -4.088557e-01 1.986185e-01 -4.088560e-01 7.712669e-01 3.396097e-01
5.145000e+09 7.747757e-01 3.371932e-01 1.951341e-01 -4.065481e-01 1.951342e-01 -4.065484e-01 7.746874e-01 3.368836e-01
5.180000e+09 7.781539e-01 3.344537e-01 1.916931e-01 -4.042242e-01 1.916932e-01 -4.042245e-01 7.780649e-01 3.341421e-01
5.215000e+09 7.814896e-01 3.316992e-01 1.882949e-01 -4.018848e-01 1.882951e-01 -4.018851e-01 7.813997e-01 3.313856e-01
5.250000e+09 7.847830e-01 3.289304e-01 1.849393e-01 -3.995304e-01 1.849394e-01 -3.995307e-01 7.846923e-01 3.286147e-01
5.285000e+09 7.880346e-01 3.261477e-01 1.816259e-01 -3.971616e-01 1.816260e-01 -3.971619e-01 7.879432e-01 3.258300e-01
5.320000e+09 7.912449e-01 3.233518e-01 1.783542e-01 -3.947789e-01 1.783543e-01 -3.947793e-01 7.911526e-01 3.230320e-01
5.355000e+09 7.944142e-01 3.205430e-01 1.751240e-01 -3.923829e-01 1.751241e-01 -3.923833e-01 7.943211e-01 3.202212e-01
5.390000e+09 7.975429e-01 3.177220e-01 1.719347e-01 -3.899742e-01 1.719348e-01 -3.899745e-01 7.974490e-01 3.173981e-01
5.425000e+09 8.006315e-01 3.148891e-01 1.687862e-01 -3.875531e-01 1.687863e-01 -3.875534e-01 8.005367e-01 3.145632e-01
5.460000e+09 8.036804e-01 3.120448e-01 1.656779e-01 -3.851202e-01 1.656780e-01 -3.851206e-01 8.035847e-01 3.117169e-01
5.495000e+09 8.066899e-01 3.091896e-01 1.626095e-01 -3.826761e-01 1.626096e-01 -3.826764e-01 8.065933e-01 3.088597e-01
5.530000e+09 8.096604e-01 3.063240e-01 1.595807e-01 -3.802211e-01 1.595808e-01 -3.802215e-01 8.095629e-01 3.059920e-01
5.565000e+09 8.125924e-01 3.034482e-01 1.565911e-01 -3.777558e-01 1.565912e-01 -3.777561e-01 8.124940e-01 3.031142e-01
5.600000e+09 8.154862e-01 3.005627e-01 1.536402e-01 -3.752805e-01 1.536403e-01 -3.752809e-01 8.153869e-01 3.002267e-01
5.635000e+09 8.183422e-01 2.976680e-01 1.507278e-01 -3.727958e-01 1.507279e-01 -3.727961e-01 8.182420e-01 2.973299e-01
5.670000e+09 8.211607e-01 2.947643e-01 1.478534e-01 -3.703019e-01 1.478535e-01 -3.703022e-01 8.210596e-01 2.944241e-01
5.705000e+09 8.239423e-01 2.918520e-01 1.450168e-01 -3.677994e-01 1.450169e-01 -3.677997e-01 8.238403e-01 2.915098e-01
5.740000e+09 8.266872e-01 2.889315e-01 1.422175e-01 -3.652886e-01 1.422176e-01 -3.652889e-01 8.265842e-01 2.885873e-01
5.775000e+09 8.293957e-01 2.860031e-01 1.394551e-01 -3.627698e-01 1.394552e-01 -3.627701e-01 8.292918e-01 2.856568e-01
5.810000e+09 8.320684e-01 2.830671e-01 1.367294e-01 -3.602435e-01 1.367295e-01 -3.602438e-01 8.319634e-01 2.827188e-01
5.845000e+09 8.347054e-01 2.801239e-01 1.340400e-01 -3.577100e-01 1.340401e-01 -3.577103e-01 8.345995e-01 2.797735e-01
5.880000e+09 8.373071e-01 2.771736e-01 1.313865e-01 -3.551697e-01 1.313866e-01 -3.551700e-01 8.372002e-01 2.768213e-01
5.915000e+09 8.398740e-01 2.742167e-01 1.287685e-01 -3.526228e-01 1.287686e-01 -3.526231e-01 8.397661e-01 2.738623e-01
5.950000e+09 8.424062e-01 2.712534e-01 1.261858e-01 -3.500697e-01 1.261859e-01 -3.500701e-01 8.422973e-01 2.708970e-01
5.985000e+09 8.449043e-01 2.682840e-01 1.236379e-01 -3.475108e-01 1.236380e-01 -3.475111e-01 8.447943e-01 2.679255e-01
6.020000e+09 8.473683e-01 2.653087e-01 1.211246e-01 -3.449463e-01 1.211247e-01 -3.449466e-01 8.472574e-01 2.649482e-01
6.055000e+09 8.497988e-01 2.623278e-01 1.186455e-01 -3.423765e-01 1.186456e-01 -3.423768e-01 8.496868e-01 2.619653e-01
6.090000e+09 8.521960e-01 2.593415e-01 1.162003e-01 -3.398017e-01 1.162004e-01 -3.398020e-01 8.520829e-01 2.589770e-01
6.125000e+09 8.545601e-01 2.563501e-01 1.137887e-01 -3.372222e-01 1.137888e-01 -3.372225e-01 8.544460e-01 2.559836e-01
6.160000e+09 8.568916e-01 2.533538e-01 1.114103e-01 -3.346382e-01 1.114104e-01 -3.346386e-01 8.567763e-01 2.529853e-01
6.195000e+09 8.591906e-01 2.503529e-01 1.090649e-01 -3.320501e-01 1.090650e-01 -3.320504e-01 8.590743e-01 2.499824e-01
6.230000e+09 8.614575e-01 2.473475e-01 1.067520e-01 -3.294580e-01 1.067521e-01 -3.294583e-01 8.613401e-01 2.469750e-01
6.265000e+09 8.636926e-01 2.443379e-01 1.044715e-01 -3.268622e-01 1.044716e-01 -3.268625e-01 8.635740e-01 2.439634e-01
6.300000e+09 8.658960e-01 2.413243e-01 1.022230e-01 -3.242630e-01 1.022231e-01 -3.242633e-01 8.657764e-01 2.409478e-01
6.335000e+09 8.680682e-01 2.383069e-01 1.000062e-01 -3.216605e-01 1.000063e-01 -3.216608e-01 8.679474e-01 2.379284e-01
6.370000e+09 8.702093e-01 2.352858e-01 9.782077e-02 -3.190551e-01 9.782085e-02 -3.190554e-01 8.700874e-01 2.349053e-01
6.405000e+09 8.723196e-01 2.322613e-01 9.566648e-02 -3.164468e-01 9.566657e-02 -3.164472e-01 8.721966e-01 2.318789e-01
6.440000e+09 8.743994e-01 2.292336e-01 9.354304e-02 -3.138360e-01 9.354312e-02 -3.138364e-01 8.742752e-01 2.288492e-01
6.475000e+09 8.764489e-01 2.262029e-01 9.145015e-02 -3.112229e-01 9.145023e-02 -3.112232e-01 8.763235e-01 2.258165e-01
6.510000e+09 8.784683e-01 2.231693e-01 8.938754e-02 -3.086076e-01 8.938762e-02 -3.086079e-01 8.783418e-01 2.227810e-01
6.545000e+09 8.804579e-01 2.201331e-01 8.735493e-02 -3.059903e-01 8.735501e-02 -3.059907e-01 8.803302e-01 2.197428e-01
6.580000e+09 8.824179e-01 2.170944e-01 8.535205e-02 -3.033713e-01 8.535213e-02 -3.033717e-01 8.822890e-01 2.167021e-01
6.615000e+09 8.843486e-01 2.140533e-01 8.337865e-02 -3.007507e-01 8.337873e-02 -3.007511e-01 8.842185e-01 2.136591e-01
6.650000e+09 8.862501e-01 2.110101e-01 8.143446e-02 -2.981287e-01 8.143453e-02 -2.981291e-01 8.861188e-01 2.106140e-01
6.685000e+09 8.881227e-01 2.079650e-01 7.951922e-02 -2.955055e-01 7.951929e-02 -2.955059e-01 8.879902e-01 2.075669e-01
6.720000e+09 8.899666e-01 2.049180e-01 7.763267e-02 -2.928813e-01 7.763275e-02 -2.928816e-01 8.898329e-01 2.045180e-01
6.755000e+09 8.917820e-01 2.018695e-01 7.577458e-02 -2.902562e-01 7.577466e-02 -2.902565e-01 8.916470e-01 2.014675e-01
6.790000e+09 8.935691e-01 1.988194e-01 7.394469e-02 -2.876303e-01 7.394477e-02 -2.876307e-01 8.934329e-01 1.984155e-01
6.825000e+09 8.953281e-01 1.957681e-01 7.214277e-02 -2.850040e-01 7.214284e-02 -2.850043e-01 8.951906e-01 1.953623e-01
6.860000e+09 8.970593e-01 1.927156e-01 7.036857e-02 -2.823773e-01 7.036864e-02 -2.823776e-01 8.969205e-01 1.923079e-01
6.895000e+09 8.987627e-01 1.896622e-01 6.862186e-02 -2.797503e-01 6.862193e-02 -2.797506e-01 8.986227e-01 1.892525e-01
6.930000e+09 9.004387e-01 1.866080e-01 6.690240e-02 -2.771233e-01 6.690247e-02 -2.771236e-01 9.002974e-01 1.861964e-01
6.965000e+09 9.020873e-01 1.835531e-01 6.520998e-02 -2.744963e-01 6.521005e-02 -2.744967e-01 9.019447e-01 1.831396e-01
7.000000e+09 9.037089e-01 1.804978e-01 6.354436e-02 -2.718696e-01 6.354443e-02 -2.718700e-01 9.035650e-01 1.800824e-01
7.035000e+09 9.053035e-01 1.774421e-01 6.190532e-02 -2.692433e-01 6.190539e-02 -2.692437e-01 9.051583e-01 1.770248e-01
7.070000e+09 9.068714e-01 1.743863e-01 6.029265e-02 -2.666175e-01 6.029271e-02 -2.666179e-01 9.067249e-01 1.739671e-01
7.105000e+09 9.084127e-01 1.713304e-01 5.870612e-02 -2.639924e-01 5.870619e-02 -2.639927e-01 9.082649e-01 1.709094e-01
7.140000e+09 9.099277e-01 1.682747e-01 5.714552e-02 -2.613680e-01 5.714559e-02 -2.613684e-01 9.097785e-01 1.678518e-01
7.175000e+09 9.114164e-01 1.652193e-01 5.561065e-02 -2.587446e-01 5.561071e-02 -2.587450e-01 9.112659e-01 1.647946e-01
7.210000e+09 9.128792e-01 1.621644e-01 5.410129e-02 -2.561223e-01 5.410135e-02 -2.561227e-01 9.127274e-01 1.617378e-01
7.245000e+09 9.143161e-01 1.591102e-01 5.261724e-02 -2.535012e-01 5.261730e-02 -2.535016e-01 9.141629e-01 1.586817e-01
7.280000e+09 9.157274e-01 1.560566e-01 5.115828e-02 -2.508814e-01 5.115835e-02 -2.508818e-01 9.155728e-01 1.556263e-01
7.315000e+09 9.171132e-01 1.530041e-01 4.972423e-02 -2.482631e-01 4.972429e-02 -2.482635e-01 9.169573e-01 1.525719e-01
7.350000e+09 9.184737e-01 1.499526e-01 4.831488e-02 -2.456464e-01 4.831494e-02 -2.456468e-01 9.183164e-01 1.495186e-01
7.385000e+09 9.198091e-01 1.469024e-01 4.693004e-02 -2.430315e-01 4.693010e-02 -2.430318e-01 9.196504e-01 1.464665e-01
7.420000e+09 9.211196e-01 1.438535e-01 4.556950e-02 -2.404183e-01 4.556956e-02 -2.404187e-01 9.209595e-01 1.434159e-01
7.455000e+09 9.224052e-01 1.408062e-01 4.423307e-02 -2.378071e-01 4.423313e-02 -2.378075e-01 9.222438e-01 1.403667e-01
7.490000e+09 9.236663e-01 1.377606e-01 4.292056e-02 -2.351981e-01 4.292062e-02 -2.351984e-01 9.235035e-01 1.373193e-01
7.525000e+09 9.249030e-01 1.347169e-01 4.163178e-02 -2.325912e-01 4.163184e-02 -2.325915e-01 9.247388e-01 1.342738e-01
7.560000e+09 9.261155e-01 1.316751e-01 4.036654e-02 -2.299867e-01 4.036660e-02 -2.299870e-01 9.259498e-01 1.312302e-01
7.595000e+09 9.273039e-01 1.286355e-01 3.912465e-02 -2.273845e-01 3.912471e-02 -2.273849e-01 9.271368e-01 1.281888e-01
7.630000e+09 9.284685e-01 1.255982e-01 3.790592e-02 -2.247850e-01 3.790598e-02 -2.247853e-01 9.282999e-01 1.251497e-01
7.665000e+09 9.296093e-01 1.225634e-01 3.671017e-02 -2.221881e-01 3.671023e-02 -2.221885e-01 9.294393e-01 1.221131e-01
7.700000e+09 9.307267e-01 1.195311e-01 3.553721e-02 -2.195940e-01 3.553727e-02 -2.195944e-01 9.305552e-01 1.190790e-01
7.735000e+09 9.318207e-01 1.165015e-01 3.438687e-02 -2.170028e-01 3.438692e-02 -2.170032e-01 9.316477e-01 1.160477e-01
7.770000e+09 9.328915e-01 1.134748e-01 3.325895e-02 -2.144146e-01 3.325900e-02 -2.144149e-01 9.327171e-01 1.130192e-01
7.805000e+09 9.339394e-01 1.104511e-01 3.215327e-02 -2.118295e-01 3.215333e-02 -2.118298e-01 9.337635e-01 1.099937e-01
7.840000e+09 9.349646e-01 1.074306e-01 3.106965e-02 -2.092476e-01 3.106971e-02 -2.092479e-01 9.347872e-01 1.069714e-01
7.875000e+09 9.359671e-01 1.044133e-01 3.000792e-02 -2.066690e-01 3.000798e-02 -2.066694e-01 9.357882e-01 1.039524e-01
7.910000e+09 9.369472e-01 1.013995e-01 2.896790e-02 -2.040938e-01 2.896795e-02 -2.040942e-01 9.367669e-01 1.009368e-01
7.945000e+09 9.379051e-01 9.838914e-02 2.794939e-02 -2.015222e-01 2.794945e-02 -2.015225e-01 9.377233e-01 9.792474e-02
7.980000e+09 9.388410e-01 9.538249e-02 2.695224e-02 -1.989541e-01 2.695230e-02 -1.989545e-01 9.386576e-01 9.491636e-02
8.015000e+09 9.397551e-01 9.237963e-02 2.597625e-02 -1.963898e-01 2.597631e-02 -1.963901e-01 9.395701e-01 9.191177e-02
8.050000e+09 9.406475e-01 8.938069e-02 2.502126e-02 -1.938293e-01 2.502132e-02 -1.938296e-01 9.404610e-01 8.891110e-02
8.085000e+09 9.415184e-01 8.638579e-02 2.408708e-02 -1.912726e-01 2.408714e-02 -1.912730e-01 9.413304e-01 8.591448e-02
8.120000e+09 9.423681e-01 8.339503e-02 2.317354e-02 -1.887200e-01 2.317360e-02 -1.887203e-01 9.421786e-01 8.292201e-02
8.155000e+09 9.431967e-01 8.040855e-02 2.228047e-02 -1.861714e-01 2.228053e-02 -1.861717e-01 9.430056e-01 7.993382e-02
8.190000e+09 9.440044e-01 7.742644e-02 2.140769e-02 -1.836269e-01 2.140775e-02 -1.836273e-01 9.438118e-01 7.695001e-02
8.225000e+09 9.447915e-01 7.444882e-02 2.055502e-02 -1.810868e-01 2.055508e-02 -1.810871e-01 9.445973e-01 7.397069e-02
8.260000e+09 9.455581e-01 7.147578e-02 1.972230e-02 -1.785509e-01 1.972236e-02 -1.785513e-01 9.453623e-01 7.099597e-02
8.295000e+09 9.463044e-01 6.850744e-02 1.890935e-02 -1.760195e-01 1.890941e-02 -1.760198e-01 9.461071e-01 6.802594e-02
8.330000e+09 9.470307e-01 6.554388e-02 1.811599e-02 -1.734925e-01 1.811605e-02 -1.734928e-01 9.468317e-01 6.506071e-02
8.365000e+09 9.477370e-01 6.258521e-02 1.734206e-02 -1.709701e-01 1.734212e-02 -1.709705e-01 9.475364e-01 6.210036e-02
8.400000e+09 9.484237e-01 5.963150e-02 1.658738e-02 -1.684523e-01 1.658745e-02 -1.684527e-01 9.482215e-01 5.914498e-02
8.435000e+09 9.490908e-01 5.668284e-02 1.585179e-02 -1.659393e-01 1.585185e-02 -1.659396e-01 9.488871e-01 5.619467e-02
8.470000e+09 9.497387e-01 5.373932e-02 1.513510e-02 -1.634310e-01 1.513517e-02 -1.634314e-01 9.495333e-01 5.324950e-02
8.505000e+09 9.503675e-01 5.080102e-02 1.443716e-02 -1.609276e-01 1.443723e-02 -1.609279e-01 9.501605e-01 5.030954e-02
8.540000e+09 9.509775e-01 4.786799e-02 1.375779e-02 -1.584290e-01 1.375786e-02 -1.584294e-01 9.507688e-01 4.737488e-02
8.575000e+09 9.515687e-01 4.494033e-02 1.309683e-02 -1.559355e-01 1.309690e-02 -1.559358e-01 9.513584e-01 4.444558e-02
8.610000e+09 9.521414e-01 4.201808e-02 1.245411e-02 -1.534469e-01 1.245418e-02 -1.534473e-01 9.519295e-01 4.152170e-02
8.645000e+09 9.526959e-01 3.910131e-02 1.182945e-02 -1.509635e-01 1.182952e-02 -1.509639e-01 9.524822e-01 3.860331e-02
8.680000e+09 9.532323e-01 3.619008e-02 1.122271e-02 -1.484852e-01 1.122278e-02 -1.484856e-01 9.530169e-01 3.569046e-02
8.715000e+09 9.537507e-01 3.328444e-02 1.063370e-02 -1.460121e-01 1.063377e-02 -1.460124e-01 9.535337e-01 3.278321e-02
8.750000e+09 9.542515e-01 3.038443e-02 1.006227e-02 -1.435442e-01 1.006234e-02 -1.435446e-01 9.540328e-01 2.988160e-02
8.785000e+09 9.547348e-01 2.749010e-02 9.508254e-03 -1.410816e-01 9.508329e-03 -1.410820e-01 9.545144e-01 2.698567e-02
8.820000e+09 9.552007e-01 2.460149e-02 8.971490e-03 -1.386244e-01 8.971567e-03 -1.386248e-01 9.549786e-01 2.409547e-02
8.855000e+09 9.556495e-01 2.171862e-02 8.451819e-03 -1.361725e-01 8.451897e-03 -1.361729e-01 9.554258e-01 2.121102e-02
8.890000e+09 9.560815e-01 1.884154e-02 7.949080e-03 -1.337261e-01 7.949159e-03 -1.337265e-01 9.558560e-01 1.833236e-02
8.925000e+09 9.564966e-01 1.597027e-02 7.463115e-03 -1.312851e-01 7.463196e-03 -1.312855e-01 9.562694e-01 1.545952e-02
8.960000e+09 9.568952e-01 1.310482e-02 6.993768e-03 -1.288496e-01 6.993850e-03 -1.288500e-01 9.566663e-01 1.259251e-02
8.995000e+09 9.572775e-01 1.024522e-02 6.540884e-03 -1.264196e-01 6.540967e-03 -1.264200e-01 9.570468e-01 9.731346e-03
9.030000e+09 9.576435e-01 7.391471e-03 6.104308e-03 -1.239952e-01 6.104393e-03 -1.239956e-01 9.574111e-01 6.876051e-03
9.065000e+09 9.579936e-01 4.543592e-03 5.683889e-03 -1.215764e-01 5.683975e-03 -1.215767e-01 9.577594e-01 4.026630e-03
9.100000e+09 9.583278e-01 1.701585e-03 5.279476e-03 -1.191631e-01 5.279563e-03 -1.191635e-01 9.580918e-01 1.183087e-03
9.135000e+09 9.586463e-01 -1.134550e-03 4.890921e-03 -1.167555e-01 4.891009e-03 -1.167559e-01 9.584086e-01 -1.654577e-03
9.170000e+09 9.589494e-01 -3.964815e-03 4.518076e-03 -1.143535e-01 4.518165e-03 -1.143539e-01 9.587099e-01 -4.486364e-03
9.205000e+09 9.592372e-01 -6.789219e-03 4.160796e-03 -1.119572e-01 4.160887e-03 -1.119576e-01 9.589959e-01 -7.312281e-03
9.240000e+09 9.595098e-01 -9.607770e-03 3.818938e-03 -1.095666e-01 3.819030e-03 -1.095670e-01 9.592667e-01 -1.013234e-02
9.275000e+09 9.597674e-01 -1.242048e-02 3.492361e-03 -1.071816e-01 3.492455e-03 -1.071820e-01 9.595225e-01 -1.294655e-02
9.310000e+09 9.600101e-01 -1.522737e-02 3.180926e-03 -1.048024e-01 3.181021e-03 -1.048028e-01 9.597634e-01 -1.575493e-02
9.345000e+09 9.602382e-01 -1.802847e-02 2.884496e-03 -1.024289e-01 2.884592e-03 -1.024293e-01 9.599897e-01 -1.855751e-02
9.380000e+09 9.604518e-01 -2.082378e-02 2.602936e-03 -1.000611e-01 2.603033e-03 -1.000615e-01 9.602014e-01 -2.135430e-02
9.415000e+09 9.606509e-01 -2.361334e-02 2.336113e-03 -9.769900e-02 2.336212e-03 -9.769942e-02 9.603987e-01 -2.414533e-02
9.450000e+09 9.608358e-01 -2.639718e-02 2.083898e-03 -9.534265e-02 2.083998e-03 -9.534307e-02 9.605818e-01 -2.693063e-02
9.485000e+09 9.610066e-01 -2.917534e-02 1.846163e-03 -9.299203e-02 1.846264e-03 -9.299245e-02 9.607508e-01 -2.971024e-02
9.520000e+09 9.611635e-01 -3.194783e-02 1.622782e-03 -9.064713e-02 1.622884e-03 -9.064755e-02 9.609058e-01 -3.248418e-02
9.555000e+09 9.613065e-01 -3.471471e-02 1.413634e-03 -8.830796e-02 1.413736e-03 -8.830839e-02 9.610469e-01 -3.525249e-02
9.590000e+09 9.614357e-01 -3.747601e-02 1.218596e-03 -8.597451e-02 1.218700e-03 -8.597494e-02 9.611743e-01 -3.801522e-02
9.625000e+09 9.615514e-01 -4.023177e-02 1.037553e-03 -8.364677e-02 1.037657e-03 -8.364721e-02 9.612880e-01 -4.077240e-02
9.660000e+09 9.616535e-01 -4.298202e-02 8.703887e-04 -8.132474e-02 8.704937e-04 -8.132518e-02 9.613883e-01 -4.352407e-02
9.695000e+09 9.617423e-01 -4.572683e-02 7.169911e-04 -7.900842e-02 7.170968e-04 -7.900886e-02 9.614752e-01 -4.627027e-02
9.730000e+09 9.618178e-01 -4.846622e-02 5.772506e-04 -7.669778e-02 5.773571e-04 -7.669823e-02 9.615488e-01 -4.901106e-02
9.765000e+09 9.618802e-01 -5.120025e-02 4.510606e-04 -7.439283e-02 4.511677e-04 -7.439328e-02 9.616093e-01 -5.174647e-02
9.800000e+09 9.619294e-01 -5.392895e-02 3.383170e-04 -7.209354e-02 3.384246e-04 -7.209399e-02 9.616566e-01 -5.447656e-02
9.835000e+09 9.619657e-01 -5.665239e-02 2.389186e-04 -6.979991e-02 2.390266e-04 -6.980037e-02 9.616910e-01 -5.720136e-02
9.870000e+09 9.619891e-01 -5.937060e-02 1.527670e-04 -6.751192e-02 1.528754e-04 -6.751238e-02 9.617124e-01 -5.992093e-02
9.905000e+09 9.619996e-01 -6.208363e-02 7.976671e-05 -6.522957e-02 7.987539e-05 -6.523003e-02 9.617210e-01 -6.263531e-02
9.940000e+09 9.619974e-01 -6.479153e-02 1.982498e-05 -6.295282e-02 1.993385e-05 -6.295329e-02 9.617169e-01 -6.534455e-02
9.975000e+09 9.619825e-01 -6.749434e-02 -2.714805e-05 -6.068168e-02 -2.703907e-05 -6.068215e-02 9.617001e-01 -6.804869e-02
1.001000e+10 9.619550e-01 -7.019212e-02 -6.123938e-05 -5.841612e-02 -6.113039e-05 -5.841660e-02 9.616706e-01 -7.074779e-02
1.004500e+10 9.619150e-01 -7.288490e-02 -8.253321e-05 -5.615613e-02 -8.242431e-05 -5.615661e-02 9.616286e-01 -7.344189e-02
1.008000e+10 9.618624e-01 -7.557273e-02 -9.111092e-05 -5.390169e-02 -9.100220e-05 -5.390218e-02 9.615741e-01 -7.613102e-02
1.011500e+10 9.617975e-01 -7.825565e-02 -8.705107e-05 -5.165279e-02 -8.694263e-05 -5.165328e-02 9.615072e-01 -7.881524e-02
1.015000e+10 9.617201e-01 -8.093371e-02 -7.042948e-05 -4.940942e-02 -7.032143e-05 -4.940991e-02 9.614279e-01 -8.149458e-02
1.018500e+10 9.616304e-01 -8.360694e-02 -4.131921e-05 -4.717154e-02 -4.121165e-05 -4.717204e-02 9.613362e-01 -8.416908e-02
1.022000e+10 9.615284e-01 -8.627537e-02 2.093873e-07 -4.493916e-02 3.163439e-07 -4.493967e-02 9.612321e-01 -8.683879e-02
1.025500e+10 9.614141e-01 -8.893906e-02 5.408860e-05 -4.271226e-02 5.419485e-05 -4.271277e-02 9.611158e-01 -8.950373e-02
1.029000e+10 9.612875e-01 -9.159802e-02 1.202533e-04 -4.049082e-02 1.203588e-04 -4.049133e-02 9.609873e-01 -9.216394e-02
1.032500e+10 9.611487e-01 -9.425229e-02 1.986411e-04 -3.827483e-02 1.987456e-04 -3.827534e-02 9.608465e-01 -9.481944e-02
1.036000e+10 9.609977e-01 -9.690189e-02 2.891918e-04 -3.606427e-02 2.892952e-04 -3.606479e-02 9.606935e-01 -9.747027e-02
1.039500e+10 9.608346e-01 -9.954686e-02 3.918478e-04 -3.385914e-02 3.919501e-04 -3.385967e-02 9.605284e-01 -1.001165e-01
1.043000e+10 9.606593e-01 -1.021872e-01 5.065539e-04 -3.165943e-02 5.066550e-04 -3.165996e-02 9.603510e-01 -1.027580e-01
1.046500e+10 9.604718e-01 -1.048229e-01 6.332572e-04 -2.946512e-02 6.333569e-04 -2.946565e-02 9.601616e-01 -1.053949e-01
1.050000e+10 9.602722e-01 -1.074541e-01 7.719069e-04 -2.727620e-02 7.720050e-04 -2.727674e-02 9.599599e-01 -1.080273e-01
1.053500e+10 9.600604e-01 -1.100807e-01 9.224543e-04 -2.509268e-02 9.225508e-04 -2.509322e-02 9.597461e-01 -1.106550e-01
1.057000e+10 9.598366e-01 -1.127027e-01 1.084853e-03 -2.291454e-02 1.084948e-03 -2.291508e-02 9.595202e-01 -1.132782e-01
1.060500e+10 9.596005e-01 -1.153201e-01 1.259058e-03 -2.074178e-02 1.259151e-03 -2.074233e-02 9.592822e-01 -1.158968e-01
1.064000e+10 9.593524e-01 -1.179330e-01 1.445026e-03 -1.857440e-02 1.445117e-03 -1.857495e-02 9.590320e-01 -1.185108e-01
1.067500e+10 9.590921e-01 -1.205413e-01 1.642717e-03 -1.641239e-02 1.642806e-03 -1.641295e-02 9.587696e-01 -1.211202e-01
1.071000e+10 9.588197e-01 -1.231450e-01 1.852090e-03 -1.425576e-02 1.852177e-03 -1.425632e-02 9.584952e-01 -1.237251e-01
1.074500e+10 9.585351e-01 -1.257441e-01 2.073108e-03 -1.210451e-02 2.073193e-03 -1.210507e-02 9.582086e-01 -1.263253e-01
1.078000e+10 9.582384e-01 -1.283386e-01 2.305734e-03 -9.958648e-03 2.305816e-03 -9.959212e-03 9.579098e-01 -1.289209e-01
1.081500e+10 9.579295e-01 -1.309284e-01 2.549932e-03 -7.818172e-03 2.550012e-03 -7.818739e-03 9.575988e-01 -1.315118e-01
1.085000e+10 9.576085e-01 -1.335136e-01 2.805669e-03 -5.683095e-03 2.805746e-03 -5.683665e-03 9.572757e-01 -1.340981e-01
1.088500e+10 9.572753e-01 -1.360940e-01 3.072909e-03 -3.553425e-03 3.072984e-03 -3.553998e-03 9.569404e-01 -1.366796e-01
1.092000e+10 9.569299e-01 -1.386698e-01 3.351622e-03 -1.429177e-03 3.351694e-03 -1.429752e-03 9.565930e-01 -1.392564e-01
1.095500e+10 9.565723e-01 -1.412407e-01 3.641775e-03 6.896377e-04 3.641844e-03 6.890602e-04 9.562333e-01 -1.418284e-01
1.099000e+10 9.562025e-01 -1.438068e-01 3.943337e-03 2.803001e-03 3.943403e-03 2.802421e-03 9.558614e-01 -1.443956e-01
1.102500e+10 9.558205e-01 -1.463681e-01 4.256277e-03 4.910895e-03 4.256340e-03 4.910313e-03 9.554773e-01 -1.469578e-01
1.106000e+10 9.554263e-01 -1.489244e-01 4.580565e-03 7.013299e-03 4.580625e-03 7.012715e-03 9.550810e-01 -1.495151e-01
1.109500e+10 9.550198e-01 -1.514757e-01 4.916169e-03 9.110191e-03 4.916226e-03 9.109605e-03 9.546725e-01 -1.520675e-01
1.113000e+10 9.546012e-01 -1.540219e-01 5.263061e-03 1.120155e-02 5.263114e-03 1.120096e-02 9.542517e-01 -1.546147e-01
1.116500e+10 9.541703e-01 -1.565630e-01 5.621208e-03 1.328734e-02 5.621259e-03 1.328675e-02 9.538188e-01 -1.571568e-01
1.120000e+10 9.537272e-01 -1.590989e-01 5.990581e-03 1.536754e-02 5.990628e-03 1.536695e-02 9.533736e-01 -1.596937e-01
1.123500e+10 9.532719e-01 -1.616295e-01 6.371147e-03 1.744211e-02 6.371191e-03 1.744152e-02 9.529162e-01 -1.622253e-01
1.127000e+10 9.528044e-01 -1.641548e-01 6.762876e-03 1.951103e-02 6.762917e-03 1.951044e-02 9.524466e-01 -1.647515e-01
1.130500e+10 9.523247e-01 -1.666746e-01 7.165735e-03 2.157426e-02 7.165772e-03 2.157367e-02 9.519648e-01 -1.672723e-01
1.134000e+10 9.518328e-01 -1.691889e-01 7.579689e-03 2.363176e-02 7.579724e-03 2.363117e-02 9.514708e-01 -1.697875e-01
1.137500e+10 9.513288e-01 -1.716975e-01 8.004706e-03 2.568350e-02 8.004737e-03 2.568291e-02 9.509647e-01 -1.722971e-01
1.141000e+10 9.508126e-01 -1.742005e-01 8.440749e-03 2.772943e-02 8.440776e-03 2.772884e-02 9.504464e-01 -1.748009e-01
1.144500e+10 9.502843e-01 -1.766976e-01 8.887781e-03 2.976952e-02 8.887805e-03 2.976893e-02 9.499160e-01 -1.772989e-01
1.148000e+10 9.497440e-01 -1.791888e-01 9.345764e-03 3.180371e-02 9.345786e-03 3.180312e-02 9.493735e-01 -1.797910e-01
1.151500e+10 9.491916e-01 -1.816739e-01 9.814660e-03 3.383197e-02 9.814678e-03 3.383138e-02 9.488190e-01 -1.822771e-01
1.155000e+10 9.486272e-01 -1.841530e-01 1.029443e-02 3.585425e-02 1.029444e-02 3.585366e-02 9.482524e-01 -1.847570e-01
1.158500e+10 9.480508e-01 -1.866258e-01 1.078502e-02 3.787050e-02 1.078503e-02 3.786991e-02 9.476739e-01 -1.872306e-01
1.162000e+10 9.474625e-01 -1.890922e-01 1.128639e-02 3.988067e-02 1.128640e-02 3.988009e-02 9.470835e-01 -1.896980e-01
1.165500e+10 9.468624e-01 -1.915522e-01 1.179851e-02 4.188472e-02 1.179851e-02 4.188414e-02 9.464813e-01 -1.921588e-01
1.169000e+10 9.462505e-01 -1.940057e-01 1.232130e-02 4.388259e-02 1.232131e-02 4.388201e-02 9.458672e-01 -1.946131e-01
1.172500e+10 9.456268e-01 -1.964524e-01 1.285474e-02 4.587423e-02 1.285474e-02 4.587365e-02 9.452414e-01 -1.970607e-01
1.176000e+10 9.449915e-01 -1.988924e-01 1.339875e-02 4.785959e-02 1.339875e-02 4.785901e-02 9.446040e-01 -1.995015e-01
1.179500e+10 9.443447e-01 -2.013255e-01 1.395330e-02 4.983862e-02 1.395329e-02 4.983805e-02 9.439550e-01 -2.019354e-01
1.183000e+10 9.436863e-01 -2.037516e-01 1.451831e-02 5.181126e-02 1.451830e-02 5.181070e-02 9.432945e-01 -2.043623e-01
1.186500e+10 9.430166e-01 -2.061706e-01 1.509373e-02 5.377747e-02 1.509372e-02 5.377691e-02 9.426227e-01 -2.067820e-01
1.190000e+10 9.423356e-01 -2.085823e-01 1.567950e-02 5.573719e-02 1.567949e-02 5.573663e-02 9.419395e-01 -2.091945e-01
1.193500e+10 9.416434e-01 -2.109867e-01 1.627554e-02 5.769036e-02 1.627553e-02 5.768981e-02 9.412451e-01 -2.115997e-01
1.197000e+10 9.409401e-01 -2.133837e-01 1.688180e-02 5.963695e-02 1.688179e-02 5.963640e-02 9.405397e-01 -2.139975e-01
1.200500e+10 9.402258e-01 -2.157732e-01 1.749821e-02 6.157689e-02 1.749819e-02 6.157634e-02 9.398233e-01 -2.163877e-01
1.204000e+10 9.395007e-01 -2.181550e-01 1.812468e-02 6.351013e-02 1.812467e-02 6.350959e-02 9.390960e-01 -2.187702e-01
1.207500e+10 9.387649e-01 -2.205291e-01 1.876115e-02 6.543663e-02 1.876113e-02 6.543610e-02 9.383581e-01 -2.211451e-01
1.211000e+10 9.380185e-01 -2.228954e-01 1.940753e-02 6.735633e-02 1.940751e-02 6.735581e-02 9.376095e-01 -2.235121e-01
1.214500e+10 9.372617e-01 -2.252537e-01 2.006375e-02 6.926920e-02 2.006373e-02 6.926868e-02 9.368505e-01 -2.258711e-01
1.218000e+10 9.364946e-01 -2.276041e-01 2.072972e-02 7.117518e-02 2.072970e-02 7.117467e-02 9.360812e-01 -2.282222e-01
1.221500e+10 9.357173e-01 -2.299465e-01 2.140535e-02 7.307423e-02 2.140534e-02 7.307373e-02 9.353018e-01 -2.305653e-01
1.225000e+10 9.349300e-01 -2.322807e-01 2.209057e-02 7.496631e-02 2.209056e-02 7.496581e-02 9.345123e-01 -2.329002e-01
1.228500e+10 9.341329e-01 -2.346067e-01 2.278527e-02 7.685138e-02 2.278526e-02 7.685089e-02 9.337131e-01 -2.352268e-01
1.232000e+10 9.333262e-01 -2.369245e-01 2.348938e-02 7.872941e-02 2.348937e-02 7.872892e-02 9.329041e-01 -2.375453e-01
1.235500e+10 9.325099e-01 -2.392339e-01 2.420278e-02 8.060034e-02 2.420277e-02 8.059987e-02 9.320857e-01 -2.398554e-01
1.239000e+10 9.316844e-01 -2.415350e-01 2.492539e-02 8.246417e-02 2.492538e-02 8.246370e-02 9.312580e-01 -2.421571e-01
1.242500e+10 9.308497e-01 -2.438278e-01 2.565710e-02 8.432085e-02 2.565710e-02 8.432039e-02 9.304210e-01 -2.444505e-01
1.246000e+10 9.300060e-01 -2.461121e-01 2.639783e-02 8.617035e-02 2.639783e-02 8.616990e-02 9.295752e-01 -2.467354e-01
1.249500e+10 9.291535e-01 -2.483880e-01 2.714746e-02 8.801267e-02 2.714746e-02 8.801222e-02 9.287205e-01 -2.490119e-01
1.253000e+10 9.282925e-01 -2.506554e-01 2.790589e-02 8.984777e-02 2.790589e-02 8.984733e-02 9.278573e-01 -2.512800e-01
1.256500e+10 9.274230e-01 -2.529144e-01 2.867301e-02 9.167563e-02 2.867303e-02 9.167521e-02 9.269856e-01 -2.535395e-01
1.260000e+10 9.265453e-01 -2.551649e-01 2.944873e-02 9.349626e-02 2.944875e-02 9.349584e-02 9.261057e-01 -2.557907e-01
1.263500e+10 9.256596e-01 -2.574071e-01 3.023294e-02 9.530963e-02 3.023296e-02 9.530923e-02 9.252178e-01 -2.580334e-01
1.267000e+10 9.247661e-01 -2.596408e-01 3.102552e-02 9.711575e-02 3.102555e-02 9.711535e-02 9.243220e-01 -2.602676e-01
1.270500e+10 9.238649e-01 -2.618662e-01 3.182637e-02 9.891461e-02 3.182641e-02 9.891422e-02 9.234186e-01 -2.624935e-01
1.274000e+10 9.229563e-01 -2.640832e-01 3.263538e-02 1.007062e-01 3.263543e-02 1.007058e-01 9.225078e-01 -2.647111e-01
1.277500e+10 9.220404e-01 -2.662920e-01 3.345245e-02 1.024906e-01 3.345250e-02 1.024902e-01 9.215896e-01 -2.669204e-01
1.281000e+10 9.211174e-01 -2.684926e-01 3.427747e-02 1.042677e-01 3.427753e-02 1.042673e-01 9.206644e-01 -2.691215e-01
1.284500e+10 9.201876e-01 -2.706850e-01 3.511032e-02 1.060376e-01 3.511039e-02 1.060373e-01 9.197323e-01 -2.713145e-01
1.288000e+10 9.192510e-01 -2.728694e-01 3.595091e-02 1.078003e-01 3.595099e-02 1.078000e-01 9.187935e-01 -2.734994e-01
1.291500e+10 9.183079e-01 -2.750459e-01 3.679912e-02 1.095559e-01 3.679921e-02 1.095555e-01 9.178482e-01 -2.756764e-01
1.295000e+10 9.173584e-01 -2.772146e-01 3.765486e-02 1.113043e-01 3.765496e-02 1.113039e-01 9.168964e-01 -2.778455e-01
1.298500e+10 9.164028e-01 -2.793756e-01 3.851802e-02 1.130455e-01 3.851813e-02 1.130452e-01 9.159386e-01 -2.800069e-01
1.302000e+10 9.154412e-01 -2.815289e-01 3.938849e-02 1.147798e-01 3.938862e-02 1.147795e-01 9.149746e-01 -2.821607e-01
1.305500e+10 9.144737e-01 -2.836749e-01 4.026619e-02 1.165070e-01 4.026633e-02 1.165067e-01 9.140049e-01 -2.843071e-01
1.309000e+10 9.135005e-01 -2.858135e-01 4.115101e-02 1.182272e-01 4.115116e-02 1.182269e-01 9.130294e-01 -2.864462e-01
1.312500e+10 9.125217e-01 -2.879450e-01 4.204287e-02 1.199405e-01 4.204303e-02 1.199402e-01 9.120483e-01 -2.885781e-01
1.316000e+10 9.115375e-01 -2.900695e-01 4.294167e-02 1.216469e-01 4.294184e-02 1.216467e-01 9.110618e-01 -2.907030e-01
1.319500e+10 9.105480e-01 -2.921873e-01 4.384732e-02 1.233466e-01 4.384750e-02 1.233463e-01 9.100700e-01 -2.928211e-01
1.323000e+10 9.095533e-01 -2.942984e-01 4.475974e-02 1.250395e-01 4.475994e-02 1.250392e-01 9.090730e-01 -2.949327e-01
1.326500e+10 9.085535e-01 -2.964032e-01 4.567885e-02 1.267257e-01 4.567907e-02 1.267255e-01 9.080709e-01 -2.970378e-01
1.330000e+10 9.075488e-01 -2.985017e-01 4.660459e-02 1.284054e-01 4.660482e-02 1.284051e-01 9.070638e-01 -2.991367e-01
1.333500e+10 9.065391e-01 -3.005943e-01 4.753687e-02 1.300785e-01 4.753712e-02 1.300783e-01 9.060519e-01 -3.012296e-01
1.337000e+10 9.055246e-01 -3.026811e-01 4.847564e-02 1.317452e-01 4.847591e-02 1.317450e-01 9.050351e-01 -3.033167e-01
1.340500e+10 9.045054e-01 -3.047623e-01 4.942083e-02 1.334056e-01 4.942111e-02 1.334054e-01 9.040135e-01 -3.053982e-01
1.344000e+10 9.034814e-01 -3.068383e-01 5.037239e-02 1.350597e-01 5.037269e-02 1.350595e-01 9.029872e-01 -3.074745e-01
1.347500e+10 9.024528e-01 -3.089091e-01 5.133027e-02 1.367076e-01 5.133059e-02 1.367074e-01 9.019562e-01 -3.095456e-01
1.351000e+10 9.014194e-01 -3.109752e-01 5.229443e-02 1.383495e-01 5.229477e-02 1.383493e-01 9.009205e-01 -3.116119e-01
1.354500e+10 9.003814e-01 -3.130366e-01 5.326484e-02 1.399854e-01 5.326520e-02 1.399852e-01 8.998801e-01 -3.136736e-01
1.358000e+10 8.993387e-01 -3.150937e-01 5.424146e-02 1.416154e-01 5.424184e-02 1.416152e-01 8.988350e-01 -3.157310e-01
1.361500e+10 8.982913e-01 -3.171467e-01 5.522427e-02 1.432397e-01 5.522467e-02 1.432395e-01 8.977853e-01 -3.177842e-01
1.365000e+10 8.972391e-01 -3.191959e-01 5.621326e-02 1.448582e-01 5.621369e-02 1.448580e-01 8.967307e-01 -3.198336e-01
1.368500e+10 8.961821e-01 -3.212415e-01 5.720842e-02 1.464712e-01 5.720887e-02 1.464710e-01 8.956713e-01 -3.218794e-01
1.372000e+10 8.951202e-01 -3.232838e-01 5.820975e-02 1.480787e-01 5.821022e-02 1.480785e-01 8.946070e-01 -3.239218e-01
1.375500e+10 8.940533e-01 -3.253229e-01 5.921726e-02 1.496809e-01 5.921776e-02 1.496807e-01 8.935376e-01 -3.259611e-01
1.379000e+10 8.929812e-01 -3.273593e-01 6.023096e-02 1.512778e-01 6.023148e-02 1.512776e-01 8.924632e-01 -3.279976e-01
1.382500e+10 8.919038e-01 -3.293930e-01 6.125088e-02 1.528695e-01 6.125142e-02 1.528693e-01 8.913834e-01 -3.300315e-01
1.386000e+10 8.908211e-01 -3.314244e-01 6.227705e-02 1.544562e-01 6.227761e-02 1.544560e-01 8.902983e-01 -3.320630e-01
1.389500e+10 8.897328e-01 -3.334536e-01 6.330950e-02 1.560379e-01 6.331009e-02 1.560377e-01 8.892075e-01 -3.340924e-01
1.393000e+10 8.886386e-01 -3.354810e-01 6.434829e-02 1.576147e-01 6.434891e-02 1.576145e-01 8.881110e-01 -3.361198e-01
1.396500e+10 8.875385e-01 -3.375067e-01 6.539347e-02 1.591868e-01 6.539412e-02 1.591866e-01 8.870085e-01 -3.381456e-01
1.400000e+10 8.864322e-01 -3.395309e-01 6.644511e-02 1.607541e-01 6.644578e-02 1.607540e-01 8.858998e-01 -3.401699e-01
