#   Hz   S  RI   R   50
!
0.000000e+00 4.335403e-02 0.000000e+00 9.541689e-01 0.000000e+00 9.541687e-01 0.000000e+00 4.336898e-02 0.000000e+00
3.500000e+07 4.344186e-02 8.937371e-03 9.540464e-01 -1.039171e-02 9.540462e-01 -1.039171e-02 4.345688e-02 8.935332e-03
7.000000e+07 4.370532e-02 1.787076e-02 9.536792e-01 -2.077336e-02 9.536790e-01 -2.077336e-02 4.372053e-02 1.786667e-02
1.050000e+08 4.414428e-02 2.679619e-02 9.530684e-01 -3.113496e-02 9.530682e-01 -3.113496e-02 4.415979e-02 2.679000e-02
1.400000e+08 4.475852e-02 3.570968e-02 9.522157e-01 -4.146668e-02 9.522155e-01 -4.146668e-02 4.477444e-02 3.570135e-02
1.750000e+08 4.554772e-02 4.460725e-02 9.511236e-01 -5.175888e-02 9.511234e-01 -5.175888e-02 4.556416e-02 4.459672e-02
2.100000e+08 4.651149e-02 5.348494e-02 9.497951e-01 -6.200222e-02 9.497949e-01 -6.200222e-02 4.652856e-02 5.347212e-02
2.450000e+08 4.764936e-02 6.233878e-02 9.482339e-01 -7.218767e-02 9.482337e-01 -7.218767e-02 4.766713e-02 6.232357e-02
2.800000e+08 4.896075e-02 7.116480e-02 9.464443e-01 -8.230662e-02 9.464441e-01 -8.230661e-02 4.897929e-02 7.114711e-02
3.150000e+08 5.044501e-02 7.995906e-02 9.444308e-01 -9.235087e-02 9.444306e-01 -9.235086e-02 5.046439e-02 7.993877e-02
3.500000e+08 5.210139e-02 8.871761e-02 9.421988e-01 -1.023127e-01 9.421986e-01 -1.023127e-01 5.212165e-02 8.869458e-02
3.850000e+08 5.392908e-02 9.743649e-02 9.397538e-01 -1.121850e-01 9.397536e-01 -1.121849e-01 5.395024e-02 9.741061e-02
4.200000e+08 5.592715e-02 1.061118e-01 9.371017e-01 -1.219609e-01 9.371015e-01 -1.219609e-01 5.594923e-02 1.060829e-01
4.550000e+08 5.809461e-02 1.147395e-01 9.342486e-01 -1.316345e-01 9.342484e-01 -1.316345e-01 5.811759e-02 1.147075e-01
4.900000e+08 6.043035e-02 1.233158e-01 9.312010e-01 -1.412002e-01 9.312007e-01 -1.412002e-01 6.045421e-02 1.232805e-01
5.250000e+08 6.293319e-02 1.318367e-01 9.279653e-01 -1.506529e-01 9.279651e-01 -1.506529e-01 6.295789e-02 1.317980e-01
5.600000e+08 6.560184e-02 1.402982e-01 9.245482e-01 -1.599883e-01 9.245479e-01 -1.599882e-01 6.562733e-02 1.402560e-01
5.950000e+08 6.843494e-02 1.486965e-01 9.209562e-01 -1.692023e-01 9.209560e-01 -1.692023e-01 6.846112e-02 1.486506e-01
6.300000e+08 7.143098e-02 1.570276e-01 9.171961e-01 -1.782917e-01 9.171959e-01 -1.782916e-01 7.145778e-02 1.569780e-01
6.650000e+08 7.458838e-02 1.652876e-01 9.132744e-01 -1.872534e-01 9.132741e-01 -1.872534e-01 7.461569e-02 1.652341e-01
7.000000e+08 7.790544e-02 1.734726e-01 9.091974e-01 -1.960852e-01 9.091972e-01 -1.960851e-01 7.793313e-02 1.734151e-01
7.350000e+08 8.138034e-02 1.815787e-01 9.049715e-01 -2.047849e-01 9.049713e-01 -2.047848e-01 8.140829e-02 1.815171e-01
7.700000e+08 8.501114e-02 1.896020e-01 9.006028e-01 -2.133509e-01 9.006026e-01 -2.133508e-01 8.503920e-02 1.895362e-01
8.050000e+08 8.879575e-02 1.975385e-01 8.960972e-01 -2.217819e-01 8.960969e-01 -2.217819e-01 8.882377e-02 1.974686e-01
8.400000e+08 9.273199e-02 2.053845e-01 8.914603e-01 -2.300771e-01 8.914601e-01 -2.300770e-01 9.275981e-02 2.053104e-01
8.750000e+08 9.681749e-02 2.131361e-01 8.866976e-01 -2.382356e-01 8.866974e-01 -2.382356e-01 9.684496e-02 2.130577e-01
9.100000e+08 1.010498e-01 2.207895e-01 8.818143e-01 -2.462572e-01 8.818141e-01 -2.462571e-01 1.010767e-01 2.207068e-01
9.450000e+08 1.054262e-01 2.283410e-01 8.768153e-01 -2.541413e-01 8.768151e-01 -2.541413e-01 1.054525e-01 2.282540e-01
9.800000e+08 1.099440e-01 2.357867e-01 8.717053e-01 -2.618881e-01 8.717051e-01 -2.618880e-01 1.099694e-01 2.356954e-01
1.015000e+09 1.146001e-01 2.431231e-01 8.664887e-01 -2.694975e-01 8.664885e-01 -2.694974e-01 1.146245e-01 2.430276e-01
1.050000e+09 1.193916e-01 2.503465e-01 8.611697e-01 -2.769695e-01 8.611695e-01 -2.769694e-01 1.194147e-01 2.502469e-01
1.085000e+09 1.243150e-01 2.574536e-01 8.557523e-01 -2.843045e-01 8.557521e-01 -2.843044e-01 1.243368e-01 2.573499e-01
1.120000e+09 1.293669e-01 2.644408e-01 8.502403e-01 -2.915025e-01 8.502401e-01 -2.915024e-01 1.293872e-01 2.643330e-01
1.155000e+09 1.345438e-01 2.713048e-01 8.446373e-01 -2.985638e-01 8.446371e-01 -2.985636e-01 1.345625e-01 2.711932e-01
1.190000e+09 1.398419e-01 2.780426e-01 8.389465e-01 -3.054885e-01 8.389463e-01 -3.054884e-01 1.398588e-01 2.779272e-01
1.225000e+09 1.452573e-01 2.846510e-01 8.331714e-01 -3.122769e-01 8.331712e-01 -3.122768e-01 1.452722e-01 2.845319e-01
1.260000e+09 1.507858e-01 2.911272e-01 8.273150e-01 -3.189292e-01 8.273149e-01 -3.189290e-01 1.507987e-01 2.910045e-01
1.295000e+09 1.564233e-01 2.974684e-01 8.213804e-01 -3.254453e-01 8.213802e-01 -3.254452e-01 1.564341e-01 2.973423e-01
1.330000e+09 1.621654e-01 3.036722e-01 8.153704e-01 -3.318254e-01 8.153703e-01 -3.318253e-01 1.621740e-01 3.035428e-01
1.365000e+09 1.680076e-01 3.097361e-01 8.092880e-01 -3.380695e-01 8.092879e-01 -3.380694e-01 1.680139e-01 3.096036e-01
1.400000e+09 1.739453e-01 3.156580e-01 8.031360e-01 -3.441775e-01 8.031358e-01 -3.441774e-01 1.739494e-01 3.155225e-01
1.435000e+09 1.799739e-01 3.214359e-01 7.969171e-01 -3.501494e-01 7.969170e-01 -3.501492e-01 1.799756e-01 3.212977e-01
1.470000e+09 1.860886e-01 3.270682e-01 7.906342e-01 -3.559850e-01 7.906341e-01 -3.559848e-01 1.860878e-01 3.269273e-01
1.505000e+09 1.922845e-01 3.325534e-01 7.842900e-01 -3.616841e-01 7.842899e-01 -3.616840e-01 1.922813e-01 3.324100e-01
1.540000e+09 1.985567e-01 3.378901e-01 7.778873e-01 -3.672466e-01 7.778872e-01 -3.672465e-01 1.985511e-01 3.377444e-01
1.575000e+09 2.049003e-01 3.430775e-01 7.714290e-01 -3.726723e-01 7.714290e-01 -3.726722e-01 2.048922e-01 3.429296e-01
1.610000e+09 2.113103e-01 3.481148e-01 7.649180e-01 -3.779610e-01 7.649179e-01 -3.779609e-01 2.112998e-01 3.479648e-01
1.645000e+09 2.177818e-01 3.530013e-01 7.583571e-01 -3.831126e-01 7.583570e-01 -3.831124e-01 2.177689e-01 3.528495e-01
1.680000e+09 2.243099e-01 3.577370e-01 7.517492e-01 -3.881268e-01 7.517491e-01 -3.881267e-01 2.242947e-01 3.575834e-01
1.715000e+09 2.308896e-01 3.623217e-01 7.450974e-01 -3.930036e-01 7.450974e-01 -3.930035e-01 2.308721e-01 3.621665e-01
1.750000e+09 2.375161e-01 3.667558e-01 7.384048e-01 -3.977429e-01 7.384047e-01 -3.977429e-01 2.374964e-01 3.665991e-01
1.785000e+09 2.441847e-01 3.710395e-01 7.316743e-01 -4.023448e-01 7.316743e-01 -4.023448e-01 2.441628e-01 3.708814e-01
1.820000e+09 2.508907e-01 3.751737e-01 7.249092e-01 -4.068094e-01 7.249091e-01 -4.068093e-01 2.508668e-01 3.750144e-01
1.855000e+09 2.576296e-01 3.791593e-01 7.181125e-01 -4.111368e-01 7.181124e-01 -4.111367e-01 2.576036e-01 3.789987e-01
1.890000e+09 2.643968e-01 3.829972e-01 7.112874e-01 -4.153272e-01 7.112874e-01 -4.153272e-01 2.643690e-01 3.828355e-01
1.925000e+09 2.711882e-01 3.866889e-01 7.044372e-01 -4.193812e-01 7.044372e-01 -4.193811e-01 2.711586e-01 3.865262e-01
1.960000e+09 2.779996e-01 3.902358e-01 6.975650e-01 -4.232991e-01 6.975650e-01 -4.232991e-01 2.779683e-01 3.900721e-01
1.995000e+09 2.848271e-01 3.936395e-01 6.906740e-01 -4.270816e-01 6.906740e-01 -4.270816e-01 2.847942e-01 3.934749e-01
2.030000e+09 2.916667e-01 3.969018e-01 6.837674e-01 -4.307294e-01 6.837674e-01 -4.307294e-01 2.916323e-01 3.967364e-01
2.065000e+09 2.985150e-01 4.000247e-01 6.768483e-01 -4.342433e-01 6.768483e-01 -4.342433e-01 2.984792e-01 3.998584e-01
2.100000e+09 3.053684e-01 4.030101e-01 6.699199e-01 -4.376243e-01 6.699199e-01 -4.376243e-01 3.053313e-01 4.028429e-01
2.135000e+09 3.122237e-01 4.058601e-01 6.629853e-01 -4.408735e-01 6.629853e-01 -4.408735e-01 3.121854e-01 4.056921e-01
2.170000e+09 3.190779e-01 4.085770e-01 6.560473e-01 -4.439921e-01 6.560473e-01 -4.439921e-01 3.190384e-01 4.084082e-01
2.205000e+09 3.259280e-01 4.111629e-01 6.491090e-01 -4.469813e-01 6.491090e-01 -4.469813e-01 3.258875e-01 4.109933e-01
2.240000e+09 3.327713e-01 4.136203e-01 6.421732e-01 -4.498426e-01 6.421733e-01 -4.498427e-01 3.327299e-01 4.134499e-01
2.275000e+09 3.396055e-01 4.159513e-01 6.352428e-01 -4.525775e-01 6.352428e-01 -4.525776e-01 3.395632e-01 4.157801e-01
2.310000e+09 3.464281e-01 4.181584e-01 6.283203e-01 -4.551876e-01 6.283203e-01 -4.551876e-01 3.463850e-01 4.179863e-01
2.345000e+09 3.532369e-01 4.202439e-01 6.214084e-01 -4.576745e-01 6.214084e-01 -4.576746e-01 3.531931e-01 4.200709e-01
2.380000e+09 3.600300e-01 4.222101e-01 6.145095e-01 -4.600400e-01 6.145095e-01 -4.600401e-01 3.599856e-01 4.220361e-01
2.415000e+09 3.668056e-01 4.240592e-01 6.076260e-01 -4.622860e-01 6.076260e-01 -4.622861e-01 3.667605e-01 4.238843e-01
2.450000e+09 3.735620e-01 4.257936e-01 6.007602e-01 -4.644143e-01 6.007602e-01 -4.644144e-01 3.735163e-01 4.256177e-01
2.485000e+09 3.802975e-01 4.274155e-01 5.939142e-01 -4.664268e-01 5.939142e-01 -4.664269e-01 3.802514e-01 4.272384e-01
2.520000e+09 3.870108e-01 4.289269e-01 5.870900e-01 -4.683255e-01 5.870901e-01 -4.683256e-01 3.869642e-01 4.287488e-01
2.555000e+09 3.937005e-01 4.303301e-01 5.802896e-01 -4.701124e-01 5.802896e-01 -4.701125e-01 3.936535e-01 4.301508e-01
2.590000e+09 4.003655e-01 4.316269e-01 5.735148e-01 -4.717895e-01 5.735148e-01 -4.717896e-01 4.003181e-01 4.314464e-01
2.625000e+09 4.070046e-01 4.328195e-01 5.667671e-01 -4.733587e-01 5.667671e-01 -4.733589e-01 4.069567e-01 4.326378e-01
2.660000e+09 4.136167e-01 4.339096e-01 5.600483e-01 -4.748223e-01 5.600483e-01 -4.748224e-01 4.135685e-01 4.337266e-01
2.695000e+09 4.202009e-01 4.348992e-01 5.533597e-01 -4.761820e-01 5.533597e-01 -4.761821e-01 4.201523e-01 4.347148e-01
2.730000e+09 4.267562e-01 4.357899e-01 5.467028e-01 -4.774400e-01 5.467028e-01 -4.774402e-01 4.267073e-01 4.356041e-01
2.765000e+09 4.332818e-01 4.365834e-01 5.400789e-01 -4.785983e-01 5.400789e-01 -4.785984e-01 4.332325e-01 4.363962e-01
2.800000e+09 4.397768e-01 4.372813e-01 5.334890e-01 -4.796587e-01 5.334890e-01 -4.796588e-01 4.397271e-01 4.370927e-01
2.835000e+09 4.462404e-01 4.378853e-01 5.269344e-01 -4.806233e-01 5.269344e-01 -4.806234e-01 4.461904e-01 4.376951e-01
2.870000e+09 4.526718e-01 4.383967e-01 5.204160e-01 -4.814939e-01 5.204160e-01 -4.814940e-01 4.526214e-01 4.382050e-01
2.905000e+09 4.590703e-01 4.388170e-01 5.139349e-01 -4.822724e-01 5.139349e-01 -4.822726e-01 4.590194e-01 4.386238e-01
2.940000e+09 4.654349e-01 4.391477e-01 5.074918e-01 -4.829607e-01 5.074918e-01 -4.829609e-01 4.653837e-01 4.389528e-01
2.975000e+09 4.717651e-01 4.393900e-01 5.010876e-01 -4.835605e-01 5.010876e-01 -4.835607e-01 4.717134e-01 4.391935e-01
3.010000e+09 4.780599e-01 4.395453e-01 4.947231e-01 -4.840737e-01 4.947230e-01 -4.840738e-01 4.780079e-01 4.393471e-01
3.045000e+09 4.843187e-01 4.396148e-01 4.883989e-01 -4.845018e-01 4.883989e-01 -4.845020e-01 4.842662e-01 4.394150e-01
3.080000e+09 4.905406e-01 4.395999e-01 4.821158e-01 -4.848467e-01 4.821158e-01 -4.848468e-01 4.904876e-01 4.393984e-01
3.115000e+09 4.967249e-01 4.395017e-01 4.758744e-01 -4.851099e-01 4.758744e-01 -4.851100e-01 4.966714e-01 4.392985e-01
3.150000e+09 5.028706e-01 4.393215e-01 4.696752e-01 -4.852930e-01 4.696752e-01 -4.852932e-01 5.028166e-01 4.391166e-01
3.185000e+09 5.089771e-01 4.390606e-01 4.635189e-01 -4.853976e-01 4.635189e-01 -4.853978e-01 5.089226e-01 4.388540e-01
3.220000e+09 5.150435e-01 4.387201e-01 4.574060e-01 -4.854253e-01 4.574060e-01 -4.854255e-01 5.149884e-01 4.385118e-01
3.255000e+09 5.210689e-01 4.383014e-01 4.513370e-01 -4.853775e-01 4.513370e-01 -4.853777e-01 5.210133e-01 4.380914e-01
3.290000e+09 5.270526e-01 4.378056e-01 4.453123e-01 -4.852557e-01 4.453123e-01 -4.852559e-01 5.269964e-01 4.375939e-01
3.325000e+09 5.329937e-01 4.372342e-01 4.393325e-01 -4.850614e-01 4.393325e-01 -4.850616e-01 5.329369e-01 4.370207e-01
3.360000e+09 5.388914e-01 4.365883e-01 4.333980e-01 -4.847960e-01 4.333981e-01 -4.847961e-01 5.388340e-01 4.363731e-01
3.395000e+09 5.447448e-01 4.358692e-01 4.275093e-01 -4.844608e-01 4.275093e-01 -4.844610e-01 5.446869e-01 4.356524e-01
3.430000e+09 5.505533e-01 4.350784e-01 4.216668e-01 -4.840573e-01 4.216668e-01 -4.840575e-01 5.504947e-01 4.348599e-01
3.465000e+09 5.563159e-01 4.342172e-01 4.158708e-01 -4.835868e-01 4.158708e-01 -4.835870e-01 5.562568e-01 4.339970e-01
3.500000e+09 5.620320e-01 4.332870e-01 4.101218e-01 -4.830507e-01 4.101218e-01 -4.830509e-01 5.619723e-01 4.330651e-01
3.535000e+09 5.677008e-01 4.322893e-01 4.044202e-01 -4.824504e-01 4.044202e-01 -4.824506e-01 5.676405e-01 4.320656e-01
3.570000e+09 5.733217e-01 4.312254e-01 3.987663e-01 -4.817871e-01 3.987663e-01 -4.817873e-01 5.732608e-01 4.310001e-01
3.605000e+09 5.788940e-01 4.300969e-01 3.931605e-01 -4.810622e-01 3.931606e-01 -4.810624e-01 5.788324e-01 4.298699e-01
3.640000e+09 5.844170e-01 4.289053e-01 3.876031e-01 -4.802770e-01 3.876032e-01 -4.802772e-01 5.843548e-01 4.286766e-01
3.675000e+09 5.898902e-01 4.276521e-01 3.820945e-01 -4.794328e-01 3.820945e-01 -4.794330e-01 5.898275e-01 4.274218e-01
3.710000e+09 5.953131e-01 4.263389e-01 3.766349e-01 -4.785309e-01 3.766349e-01 -4.785311e-01 5.952498e-01 4.261068e-01
3.745000e+09 6.006853e-01 4.249672e-01 3.712246e-01 -4.775727e-01 3.712246e-01 -4.775729e-01 6.006214e-01 4.247334e-01
3.780000e+09 6.060062e-01 4.235385e-01 3.658638e-01 -4.765594e-01 3.658639e-01 -4.765596e-01 6.059418e-01 4.233031e-01
3.815000e+09 6.112757e-01 4.220546e-01 3.605529e-01 -4.754924e-01 3.605530e-01 -4.754926e-01 6.112107e-01 4.218174e-01
3.850000e+09 6.164933e-01 4.205168e-01 3.552919e-01 -4.743729e-01 3.552920e-01 -4.743731e-01 6.164278e-01 4.202780e-01
3.885000e+09 6.216589e-01 4.189268e-01 3.500812e-01 -4.732022e-01 3.500813e-01 -4.732024e-01 6.215928e-01 4.186863e-01
3.920000e+09 6.267723e-01 4.172862e-01 3.449208e-01 -4.719816e-01 3.449209e-01 -4.719818e-01 6.267057e-01 4.170440e-01
3.955000e+09 6.318334e-01 4.155965e-01 3.398108e-01 -4.707124e-01 3.398109e-01 -4.707126e-01 6.317662e-01 4.153526e-01
3.990000e+09 6.368421e-01 4.138593e-01 3.347514e-01 -4.693959e-01 3.347515e-01 -4.693961e-01 6.367744e-01 4.136136e-01
4.025000e+09 6.417984e-01 4.120759e-01 3.297427e-01 -4.680332e-01 3.297428e-01 -4.680334e-01 6.417302e-01 4.118285e-01
4.060000e+09 6.467024e-01 4.102480e-01 3.247846e-01 -4.666258e-01 3.247847e-01 -4.666260e-01 6.466337e-01 4.099989e-01
4.095000e+09 6.515543e-01 4.083770e-01 3.198772e-01 -4.651747e-01 3.198773e-01 -4.651749e-01 6.514851e-01 4.081261e-01
4.130000e+09 6.563542e-01 4.064643e-01 3.150204e-01 -4.636813e-01 3.150205e-01 -4.636815e-01 6.562845e-01 4.062115e-01
4.165000e+09 6.611023e-01 4.045112e-01 3.102143e-01 -4.621467e-01 3.102144e-01 -4.621469e-01 6.610321e-01 4.042566e-01
4.200000e+09 6.657988e-01 4.025190e-01 3.054586e-01 -4.605721e-01 3.054587e-01 -4.605723e-01 6.657281e-01 4.022627e-01
4.235000e+09 6.704442e-01 4.004892e-01 3.007534e-01 -4.589587e-01 3.007535e-01 -4.589590e-01 6.703730e-01 4.002310e-01
4.270000e+09 6.750386e-01 3.984228e-01 2.960984e-01 -4.573077e-01 2.960985e-01 -4.573079e-01 6.749669e-01 3.981628e-01
4.305000e+09 6.795825e-01 3.963211e-01 2.914936e-01 -4.556201e-01 2.914937e-01 -4.556204e-01 6.795103e-01 3.960592e-01
4.340000e+09 6.840763e-01 3.941853e-01 2.869386e-01 -4.538971e-01 2.869387e-01 -4.538974e-01 6.840036e-01 3.939215e-01
4.375000e+09 6.885204e-01 3.920163e-01 2.824334e-01 -4.521398e-01 2.824335e-01 -4.521400e-01 6.884471e-01 3.917506e-01
4.410000e+09 6.929151e-01 3.898153e-01 2.779776e-01 -4.503491e-01 2.779777e-01 -4.503494e-01 6.928414e-01 3.895476e-01
4.445000e+09 6.972610e-01 3.875832e-01 2.735711e-01 -4.485262e-01 2.735712e-01 -4.485265e-01 6.971867e-01 3.873136e-01
4.480000e+09 7.015586e-01 3.853209e-01 2.692135e-01 -4.466720e-01 2.692136e-01 -4.466723e-01 7.014837e-01 3.850494e-01
4.515000e+09 7.058081e-01 3.830294e-01 2.649045e-01 -4.447875e-01 2.649047e-01 -4.447878e-01 7.057327e-01 3.827558e-01
4.550000e+09 7.100102e-01 3.807094e-01 2.606439e-01 -4.428737e-01 2.606441e-01 -4.428740e-01 7.099342e-01 3.804339e-01
4.585000e+09 7.141652e-01 3.783618e-01 2.564314e-01 -4.409314e-01 2.564315e-01 -4.409317e-01 7.140887e-01 3.780842e-01
4.620000e+09 7.182737e-01 3.759872e-01 2.522665e-01 -4.389614e-01 2.522666e-01 -4.389617e-01 7.181965e-01 3.757077e-01
4.655000e+09 7.223359e-01 3.735865e-01 2.481490e-01 -4.369648e-01 2.481492e-01 -4.369651e-01 7.222582e-01 3.733049e-01
4.690000e+09 7.263524e-01 3.711603e-01 2.440786e-01 -4.349423e-01 2.440787e-01 -4.349426e-01 7.262741e-01 3.708767e-01
4.725000e+09 7.303236e-01 3.687091e-01 2.400548e-01 -4.328946e-01 2.400549e-01 -4.328949e-01 7.302446e-01 3.684235e-01
4.760000e+09 7.342498e-01 3.662337e-01 2.360774e-01 -4.308226e-01 2.360775e-01 -4.308229e-01 7.341701e-01 3.659460e-01
4.795000e+09 7.381313e-01 3.637345e-01 2.321459e-01 -4.287270e-01 2.321460e-01 -4.287273e-01 7.380510e-01 3.634447e-01
4.830000e+09 7.419686e-01 3.612122e-01 2.282600e-01 -4.266085e-01 2.282601e-01 -4.266088e-01 7.418875e-01 3.609204e-01
4.865000e+09 7.457620e-01 3.586672e-01 2.244195e-01 -4.244678e-01 2.244196e-01 -4.244681e-01 7.456802e-01 3.583734e-01
4.900000e+09 7.495117e-01 3.561002e-01 2.206238e-01 -4.223056e-01 2.206239e-01 -4.223059e-01 7.494291e-01 3.558042e-01
4.935000e+09 7.532180e-01 3.535115e-01 2.168728e-01 -4.201224e-01 2.168729e-01 -4.201228e-01 7.531347e-01 3.532135e-01
4.970000e+09 7.568812e-01 3.509017e-01 2.131660e-01 -4.179191e-01 2.131661e-01 -4.179194e-01 7.567971e-01 3.506017e-01
5.005000e+09 7.605015e-01 3.482713e-01 2.095030e-01 -4.156961e-01 2.095031e-01 -4.156964e-01 7.604167e-01 3.479692e-01
5.040000e+09 7.640792e-01 3.456208e-01 2.058837e-01 -4.134540e-01 2.058838e-01 -4.134543e-01 7.639935e-01 3.453166e-01
5.075000e+09 7.676144e-01 3.429506e-01 2.023076e-01 -4.111935e-01 2.023077e-01 -4.111938e-01 7.675279e-01 3.426444e-01
5.110000e+09 7.711073e-01 3.402613e-01 1.987745e-01 -4.089150e-01 1.987746e-01 -4.089153e-01 7.710200e-01 3.399530e-01
5.145000e+09 7.745582e-01 3.375533e-01 1.952839e-01 -4.066192e-01 1.952840e-01 -4.066195e-01 7.744700e-01 3.372429e-01
5.180000e+09 7.779671e-01 3.348271e-01 1.918357e-01 -4.043066e-01 1.918358e-01 -4.043069e-01 7.778781e-01 3.345147e-01
5.215000e+09 7.813342e-01 3.320832e-01 1.884295e-01 -4.019776e-01 1.884296e-01 -4.019779e-01 7.812443e-01 3.317688e-01
5.250000e+09 7.846597e-01 3.293221e-01 1.850651e-01 -3.996329e-01 1.850652e-01 -3.996332e-01 7.845689e-01 3.290057e-01
5.285000e+09 7.879437e-01 3.265444e-01 1.817420e-01 -3.972729e-01 1.817421e-01 -3.972732e-01 7.878521e-01 3.262260e-01
5.320000e+09 7.911863e-01 3.237506e-01 1.784602e-01 -3.948981e-01 1.784603e-01 -3.948984e-01 7.910938e-01 3.234301e-01
5.355000e+09 7.943878e-01 3.209413e-01 1.752191e-01 -3.925091e-01 1.752192e-01 -3.925094e-01 7.942944e-01 3.206188e-01
5.390000e+09 7.975482e-01 3.181169e-01 1.720187e-01 -3.901062e-01 1.720188e-01 -3.901065e-01 7.974539e-01 3.177923e-01
5.425000e+09 8.006678e-01 3.152780e-01 1.688586e-01 -3.876901e-01 1.688587e-01 -3.876904e-01 8.005725e-01 3.149515e-01
5.460000e+09 8.037466e-01 3.124252e-01 1.657385e-01 -3.852611e-01 1.657386e-01 -3.852614e-01 8.036504e-01 3.120967e-01
5.495000e+09 8.067848e-01 3.095591e-01 1.626582e-01 -3.828198e-01 1.626583e-01 -3.828201e-01 8.066877e-01 3.092286e-01
5.530000e+09 8.097827e-01 3.066802e-01 1.596174e-01 -3.803666e-01 1.596175e-01 -3.803669e-01 8.096847e-01 3.063478e-01
5.565000e+09 8.127405e-01 3.037892e-01 1.566158e-01 -3.779020e-01 1.566159e-01 -3.779023e-01 8.126415e-01 3.034548e-01
5.600000e+09 8.156584e-01 3.008866e-01 1.536531e-01 -3.754265e-01 1.536532e-01 -3.754268e-01 8.155584e-01 3.005502e-01
5.635000e+09 8.185365e-01 2.979730e-01 1.507291e-01 -3.729405e-01 1.507292e-01 -3.729408e-01 8.184357e-01 2.976346e-01
5.670000e+09 8.213753e-01 2.950489e-01 1.478434e-01 -3.704445e-01 1.478435e-01 -3.704448e-01 8.212734e-01 2.947085e-01
5.705000e+09 8.241749e-01 2.921150e-01 1.449959e-01 -3.679389e-01 1.449960e-01 -3.679392e-01 8.240721e-01 2.917727e-01
5.740000e+09 8.269356e-01 2.891718e-01 1.421862e-01 -3.654241e-01 1.421863e-01 -3.654244e-01 8.268319e-01 2.888275e-01
5.775000e+09 8.296578e-01 2.862199e-01 1.394139e-01 -3.629007e-01 1.394140e-01 -3.629010e-01 8.295531e-01 2.858736e-01
5.810000e+09 8.323418e-01 2.832598e-01 1.366789e-01 -3.603690e-01 1.366790e-01 -3.603693e-01 8.322361e-01 2.829115e-01
5.845000e+09 8.349879e-01 2.802920e-01 1.339808e-01 -3.578294e-01 1.339809e-01 -3.578297e-01 8.348813e-01 2.799418e-01
5.880000e+09 8.375966e-01 2.773171e-01 1.313192e-01 -3.552825e-01 1.313193e-01 -3.552828e-01 8.374890e-01 2.769650e-01
5.915000e+09 8.401681e-01 2.743356e-01 1.286940e-01 -3.527285e-01 1.286941e-01 -3.527288e-01 8.400596e-01 2.739815e-01
5.950000e+09 8.427030e-01 2.713479e-01 1.261047e-01 -3.501679e-01 1.261048e-01 -3.501682e-01 8.425934e-01 2.709918e-01
5.985000e+09 8.452015e-01 2.683546e-01 1.235510e-01 -3.476011e-01 1.235511e-01 -3.476014e-01 8.450910e-01 2.679965e-01
6.020000e+09 8.476642e-01 2.653560e-01 1.210327e-01 -3.450285e-01 1.210328e-01 -3.450288e-01 8.475527e-01 2.649959e-01
6.055000e+09 8.500914e-01 2.623525e-01 1.185493e-01 -3.424503e-01 1.185494e-01 -3.424507e-01 8.499789e-01 2.619905e-01
6.090000e+09 8.524837e-01 2.593447e-01 1.161006e-01 -3.398671e-01 1.161007e-01 -3.398674e-01 8.523702e-01 2.589807e-01
6.125000e+09 8.548414e-01 2.563327e-01 1.136862e-01 -3.372791e-01 1.136863e-01 -3.372794e-01 8.547269e-01 2.559667e-01
6.160000e+09 8.571649e-01 2.533170e-01 1.113058e-01 -3.346867e-01 1.113059e-01 -3.346870e-01 8.570494e-01 2.529490e-01
6.195000e+09 8.594548e-01 2.502978e-01 1.089589e-01 -3.320901e-01 1.089590e-01 -3.320904e-01 8.593383e-01 2.499279e-01
6.230000e+09 8.617115e-01 2.472756e-01 1.066454e-01 -3.294898e-01 1.066455e-01 -3.294901e-01 8.615939e-01 2.469036e-01
6.265000e+09 8.639354e-01 2.442504e-01 1.043648e-01 -3.268859e-01 1.043649e-01 -3.268862e-01 8.638168e-01 2.438765e-01
6.300000e+09 8.661270e-01 2.412226e-01 1.021168e-01 -3.242788e-01 1.021169e-01 -3.242791e-01 8.660073e-01 2.408467e-01
6.335000e+09 8.682866e-01 2.381924e-01 9.990100e-02 -3.216688e-01 9.990111e-02 -3.216691e-01 8.681658e-01 2.378145e-01
6.370000e+09 8.704147e-01 2.351600e-01 9.771715e-02 -3.190560e-01 9.771725e-02 -3.190564e-01 8.702929e-01 2.347800e-01
6.405000e+09 8.725118e-01 2.321255e-01 9.556488e-02 -3.164409e-01 9.556498e-02 -3.164412e-01 8.723888e-01 2.317435e-01
6.440000e+09 8.745781e-01 2.290891e-01 9.344384e-02 -3.138235e-01 9.344394e-02 -3.138238e-01 8.744540e-01 2.287051e-01
6.475000e+09 8.766140e-01 2.260510e-01 9.135373e-02 -3.112041e-01 9.135383e-02 -3.112045e-01 8.764889e-01 2.256650e-01
6.510000e+09 8.786200e-01 2.230112e-01 8.929421e-02 -3.085830e-01 8.929430e-02 -3.085833e-01 8.784937e-01 2.226232e-01
6.545000e+09 8.805964e-01 2.199699e-01 8.726496e-02 -3.059602e-01 8.726505e-02 -3.059606e-01 8.804689e-01 2.195799e-01
6.580000e+09 8.825434e-01 2.169271e-01 8.526567e-02 -3.033361e-01 8.526576e-02 -3.033365e-01 8.824148e-01 2.165351e-01
6.615000e+09 8.844615e-01 2.138830e-01 8.329605e-02 -3.007108e-01 8.329613e-02 -3.007112e-01 8.843317e-01 2.134890e-01
6.650000e+09 8.863508e-01 2.108376e-01 8.135578e-02 -2.980845e-01 8.135586e-02 -2.980849e-01 8.862198e-01 2.104417e-01
6.685000e+09 8.882116e-01 2.077911e-01 7.944458e-02 -2.954573e-01 7.944466e-02 -2.954577e-01 8.880794e-01 2.073931e-01
6.720000e+09 8.900442e-01 2.047434e-01 7.756217e-02 -2.928294e-01 7.756225e-02 -2.928298e-01 8.899108e-01 2.043435e-01
6.755000e+09 8.918489e-01 2.016946e-01 7.570827e-02 -2.902010e-01 7.570834e-02 -2.902014e-01 8.917142e-01 2.012927e-01
6.790000e+09 8.936258e-01 1.986449e-01 7.388261e-02 -2.875722e-01 7.388268e-02 -2.875726e-01 8.934898e-01 1.982411e-01
6.825000e+09 8.953751e-01 1.955943e-01 7.208493e-02 -2.849431e-01 7.208500e-02 -2.849435e-01 8.952379e-01 1.951885e-01
6.860000e+09 8.970970e-01 1.925428e-01 7.031498e-02 -2.823140e-01 7.031505e-02 -2.823143e-01 8.969586e-01 1.921351e-01
6.895000e+09 8.987917e-01 1.894906e-01 6.857251e-02 -2.796848e-01 6.857258e-02 -2.796852e-01 8.986520e-01 1.890809e-01
6.930000e+09 9.004594e-01 1.864378e-01 6.685729e-02 -2.770558e-01 6.685735e-02 -2.770562e-01 9.003183e-01 1.860261e-01
6.965000e+09 9.021001e-01 1.833844e-01 6.516908e-02 -2.744271e-01 6.516914e-02 -2.744275e-01 9.019577e-01 1.829708e-01
7.000000e+09 9.037140e-01 1.803305e-01 6.350766e-02 -2.717988e-01 6.350772e-02 -2.717992e-01 9.035704e-01 1.799150e-01
7.035000e+09 9.053013e-01 1.772764e-01 6.187280e-02 -2.691711e-01 6.187286e-02 -2.691715e-01 9.051563e-01 1.768590e-01
7.070000e+09 9.068621e-01 1.742220e-01 6.026430e-02 -2.665441e-01 6.026436e-02 -2.665444e-01 9.067157e-01 1.738027e-01
7.105000e+09 9.083964e-01 1.711676e-01 5.868194e-02 -2.639179e-01 5.868199e-02 -2.639182e-01 9.082487e-01 1.707465e-01
7.140000e+09 9.099045e-01 1.681134e-01 5.712552e-02 -2.612926e-01 5.712557e-02 -2.612929e-01 9.097554e-01 1.676903e-01
7.175000e+09 9.113864e-01 1.650594e-01 5.559483e-02 -2.586684e-01 5.559488e-02 -2.586688e-01 9.112359e-01 1.646345e-01
7.210000e+09 9.128422e-01 1.620058e-01 5.408967e-02 -2.560454e-01 5.408972e-02 -2.560458e-01 9.126904e-01 1.615791e-01
7.245000e+09 9.142721e-01 1.589529e-01 5.260986e-02 -2.534238e-01 5.260991e-02 -2.534242e-01 9.141189e-01 1.585243e-01
7.280000e+09 9.156762e-01 1.559009e-01 5.115518e-02 -2.508037e-01 5.115523e-02 -2.508040e-01 9.155216e-01 1.554704e-01
7.315000e+09 9.170546e-01 1.528498e-01 4.972546e-02 -2.481852e-01 4.972551e-02 -2.481855e-01 9.168987e-01 1.524176e-01
7.350000e+09 9.184075e-01 1.498001e-01 4.832049e-02 -2.455684e-01 4.832054e-02 -2.455688e-01 9.182502e-01 1.493660e-01
7.385000e+09 9.197351e-01 1.467518e-01 4.694008e-02 -2.429536e-01 4.694013e-02 -2.429539e-01 9.195763e-01 1.463158e-01
7.420000e+09 9.210374e-01 1.437051e-01 4.558404e-02 -2.403408e-01 4.558409e-02 -2.403411e-01 9.208772e-01 1.432674e-01
7.455000e+09 9.223147e-01 1.406604e-01 4.425218e-02 -2.377302e-01 4.425222e-02 -2.377305e-01 9.221532e-01 1.402209e-01
7.490000e+09 9.235672e-01 1.376178e-01 4.294429e-02 -2.351219e-01 4.294433e-02 -2.351222e-01 9.234042e-01 1.371765e-01
7.525000e+09 9.247950e-01 1.345776e-01 4.166017e-02 -2.325160e-01 4.166022e-02 -2.325163e-01 9.246306e-01 1.341345e-01
7.560000e+09 9.259984e-01 1.315400e-01 4.039964e-02 -2.299127e-01 4.039969e-02 -2.299131e-01 9.258326e-01 1.310951e-01
7.595000e+09 9.271776e-01 1.285051e-01 3.916248e-02 -2.273122e-01 3.916253e-02 -2.273125e-01 9.270104e-01 1.280585e-01
7.630000e+09 9.283329e-01 1.254732e-01 3.794850e-02 -2.247145e-01 3.794855e-02 -2.247148e-01 9.281642e-01 1.250248e-01
7.665000e+09 9.294644e-01 1.224446e-01 3.675748e-02 -2.221198e-01 3.675754e-02 -2.221201e-01 9.292943e-01 1.219944e-01
7.700000e+09 9.305724e-01 1.194193e-01 3.558923e-02 -2.195282e-01 3.558928e-02 -2.195285e-01 9.304009e-01 1.189674e-01
7.735000e+09 9.316572e-01 1.163977e-01 3.444352e-02 -2.169398e-01 3.444357e-02 -2.169402e-01 9.314843e-01 1.159440e-01
7.770000e+09 9.327191e-01 1.133798e-01 3.332015e-02 -2.143548e-01 3.332020e-02 -2.143551e-01 9.325447e-01 1.129243e-01
7.805000e+09 9.337584e-01 1.103658e-01 3.221890e-02 -2.117733e-01 3.221896e-02 -2.117736e-01 9.335825e-01 1.099086e-01
7.840000e+09 9.347753e-01 1.073558e-01 3.113956e-02 -2.091953e-01 3.113962e-02 -2.091956e-01 9.345980e-01 1.068969e-01
7.875000e+09 9.357702e-01 1.043501e-01 3.008192e-02 -2.066210e-01 3.008198e-02 -2.066214e-01 9.355914e-01 1.038894e-01
7.910000e+09 9.367433e-01 1.013486e-01 2.904575e-02 -2.040505e-01 2.904581e-02 -2.040508e-01 9.365631e-01 1.008862e-01
7.945000e+09 9.376950e-01 9.835160e-02 2.803084e-02 -2.014839e-01 2.803090e-02 -2.014842e-01 9.375132e-01 9.788740e-02
7.980000e+09 9.386254e-01 9.535905e-02 2.703698e-02 -1.989212e-01 2.703704e-02 -1.989215e-01 9.384422e-01 9.489309e-02
8.015000e+09 9.395350e-01 9.237104e-02 2.606394e-02 -1.963625e-01 2.606401e-02 -1.963629e-01 9.393503e-01 9.190334e-02
8.050000e+09 9.404241e-01 8.938762e-02 2.511153e-02 -1.938080e-01 2.511159e-02 -1.938083e-01 9.402379e-01 8.891819e-02
8.085000e+09 9.412928e-01 8.640884e-02 2.417951e-02 -1.912576e-01 2.417957e-02 -1.912580e-01 9.411051e-01 8.593767e-02
8.120000e+09 9.421416e-01 8.343472e-02 2.326769e-02 -1.887115e-01 2.326775e-02 -1.887119e-01 9.419523e-01 8.296180e-02
8.155000e+09 9.429706e-01 8.046524e-02 2.237586e-02 -1.861697e-01 2.237592e-02 -1.861700e-01 9.427798e-01 7.999059e-02
8.190000e+09 9.437801e-01 7.750041e-02 2.150381e-02 -1.836322e-01 2.150388e-02 -1.836325e-01 9.435878e-01 7.702403e-02
8.225000e+09 9.445704e-01 7.454021e-02 2.065135e-02 -1.810991e-01 2.065142e-02 -1.810994e-01 9.443765e-01 7.406210e-02
8.260000e+09 9.453417e-01 7.158460e-02 1.981828e-02 -1.785704e-01 1.981835e-02 -1.785707e-01 9.451463e-01 7.110476e-02
8.295000e+09 9.460943e-01 6.863353e-02 1.900441e-02 -1.760461e-01 1.900448e-02 -1.760465e-01 9.458972e-01 6.815197e-02
8.330000e+09 9.468282e-01 6.568697e-02 1.820956e-02 -1.735264e-01 1.820963e-02 -1.735267e-01 9.466296e-01 6.520369e-02
8.365000e+09 9.475439e-01 6.274485e-02 1.743356e-02 -1.710111e-01 1.743363e-02 -1.710115e-01 9.473436e-01 6.225986e-02
8.400000e+09 9.482413e-01 5.980711e-02 1.667621e-02 -1.685004e-01 1.667629e-02 -1.685007e-01 9.480394e-01 5.932042e-02
8.435000e+09 9.489207e-01 5.687369e-02 1.593737e-02 -1.659942e-01 1.593744e-02 -1.659945e-01 9.487172e-01 5.638529e-02
8.470000e+09 9.495822e-01 5.394452e-02 1.521687e-02 -1.634926e-01 1.521694e-02 -1.634929e-01 9.493771e-01 5.345443e-02
8.505000e+09 9.502259e-01 5.101953e-02 1.451455e-02 -1.609955e-01 1.451462e-02 -1.609959e-01 9.500192e-01 5.052777e-02
8.540000e+09 9.508520e-01 4.809868e-02 1.383027e-02 -1.585030e-01 1.383034e-02 -1.585034e-01 9.506436e-01 4.760523e-02
8.575000e+09 9.514606e-01 4.518189e-02 1.316388e-02 -1.560152e-01 1.316395e-02 -1.560155e-01 9.512505e-01 4.468678e-02
8.610000e+09 9.520517e-01 4.226912e-02 1.251524e-02 -1.535319e-01 1.251531e-02 -1.535323e-01 9.518399e-01 4.177235e-02
8.645000e+09 9.526254e-01 3.936031e-02 1.188423e-02 -1.510533e-01 1.188430e-02 -1.510536e-01 9.524120e-01 3.886189e-02
8.680000e+09 9.531818e-01 3.645544e-02 1.127072e-02 -1.485793e-01 1.127079e-02 -1.485796e-01 9.529666e-01 3.595539e-02
8.715000e+09 9.537210e-01 3.355448e-02 1.067459e-02 -1.461099e-01 1.067466e-02 -1.461103e-01 9.535040e-01 3.305280e-02
8.750000e+09 9.542428e-01 3.065741e-02 1.009572e-02 -1.436452e-01 1.009580e-02 -1.436456e-01 9.540242e-01 3.015411e-02
8.785000e+09 9.547475e-01 2.776423e-02 9.534006e-03 -1.411853e-01 9.534081e-03 -1.411856e-01 9.545271e-01 2.725933e-02
8.820000e+09 9.552350e-01 2.487494e-02 8.989336e-03 -1.387300e-01 8.989411e-03 -1.387303e-01 9.550129e-01 2.436845e-02
8.855000e+09 9.557053e-01 2.198957e-02 8.461606e-03 -1.362794e-01 8.461682e-03 -1.362798e-01 9.554814e-01 2.148150e-02
8.890000e+09 9.561585e-01 1.910816e-02 7.950715e-03 -1.338336e-01 7.950792e-03 -1.338340e-01 9.559329e-01 1.859852e-02
8.925000e+09 9.565946e-01 1.623075e-02 7.456564e-03 -1.313926e-01 7.456641e-03 -1.313930e-01 9.563672e-01 1.571955e-02
8.960000e+09 9.570135e-01 1.335740e-02 6.979056e-03 -1.289565e-01 6.979134e-03 -1.289568e-01 9.567843e-01 1.284465e-02
8.995000e+09 9.574154e-01 1.048819e-02 6.518093e-03 -1.265252e-01 6.518172e-03 -1.265255e-01 9.571844e-01 9.973913e-03
9.030000e+09 9.578002e-01 7.623206e-03 6.073580e-03 -1.240988e-01 6.073660e-03 -1.240991e-01 9.575674e-01 7.107408e-03
9.065000e+09 9.581680e-01 4.762547e-03 5.645421e-03 -1.216773e-01 5.645502e-03 -1.216777e-01 9.579334e-01 4.245239e-03
9.100000e+09 9.585188e-01 1.906322e-03 5.233519e-03 -1.192608e-01 5.233601e-03 -1.192612e-01 9.582824e-01 1.387515e-03
9.135000e+09 9.588526e-01 -9.453505e-04 4.837776e-03 -1.168494e-01 4.837860e-03 -1.168498e-01 9.586144e-01 -1.465645e-03
9.170000e+09 9.591696e-01 -3.792343e-03 4.458094e-03 -1.144431e-01 4.458179e-03 -1.144435e-01 9.589296e-01 -4.314114e-03
9.205000e+09 9.594697e-01 -6.634521e-03 4.094372e-03 -1.120420e-01 4.094458e-03 -1.120424e-01 9.592279e-01 -7.157760e-03
9.240000e+09 9.597531e-01 -9.471747e-03 3.746505e-03 -1.096460e-01 3.746593e-03 -1.096464e-01 9.595095e-01 -9.996444e-03
9.275000e+09 9.600199e-01 -1.230388e-02 3.414389e-03 -1.072554e-01 3.414479e-03 -1.072558e-01 9.597745e-01 -1.283002e-02
9.310000e+09 9.602701e-01 -1.513077e-02 3.097915e-03 -1.048700e-01 3.098006e-03 -1.048704e-01 9.600229e-01 -1.565835e-02
9.345000e+09 9.605039e-01 -1.795228e-02 2.796971e-03 -1.024900e-01 2.797064e-03 -1.024904e-01 9.602549e-01 -1.848129e-02
9.380000e+09 9.607215e-01 -2.076826e-02 2.511442e-03 -1.001155e-01 2.511537e-03 -1.001159e-01 9.604706e-01 -2.129870e-02
9.415000e+09 9.609229e-01 -2.357858e-02 2.241211e-03 -9.774646e-02 2.241308e-03 -9.774687e-02 9.606702e-01 -2.411044e-02
9.450000e+09 9.611083e-01 -2.638310e-02 1.986157e-03 -9.538297e-02 1.986256e-03 -9.538339e-02 9.608538e-01 -2.691637e-02
9.485000e+09 9.612779e-01 -2.918169e-02 1.746157e-03 -9.302509e-02 1.746257e-03 -9.302550e-02 9.610216e-01 -2.971637e-02
9.520000e+09 9.614320e-01 -3.197425e-02 1.521082e-03 -9.067286e-02 1.521184e-03 -9.067328e-02 9.611738e-01 -3.251033e-02
9.555000e+09 9.615706e-01 -3.476066e-02 1.310806e-03 -8.832633e-02 1.310910e-03 -8.832675e-02 9.613106e-01 -3.529814e-02
9.590000e+09 9.616940e-01 -3.754083e-02 1.115196e-03 -8.598554e-02 1.115302e-03 -8.598596e-02 9.614322e-01 -3.807970e-02
9.625000e+09 9.618024e-01 -4.031468e-02 9.341201e-04 -8.365053e-02 9.342276e-04 -8.365096e-02 9.615388e-01 -4.085493e-02
9.660000e+09 9.618961e-01 -4.308213e-02 7.674431e-04 -8.132135e-02 7.675523e-04 -8.132178e-02 9.616306e-01 -4.362377e-02
9.695000e+09 9.619752e-01 -4.584314e-02 6.150301e-04 -7.899801e-02 6.151408e-04 -7.899844e-02 9.617078e-01 -4.638616e-02
9.730000e+09 9.620399e-01 -4.859768e-02 4.767452e-04 -7.668055e-02 4.768575e-04 -7.668099e-02 9.617707e-01 -4.914207e-02
9.765000e+09 9.620906e-01 -5.134571e-02 3.524530e-04 -7.436898e-02 3.525667e-04 -7.436942e-02 9.618195e-01 -5.189147e-02
9.800000e+09 9.621273e-01 -5.408724e-02 2.420185e-04 -7.206332e-02 2.421334e-04 -7.206377e-02 9.618544e-01 -5.463437e-02
9.835000e+09 9.621505e-01 -5.682227e-02 1.453080e-04 -6.976359e-02 1.454241e-04 -6.976405e-02 9.618757e-01 -5.737077e-02
9.870000e+09 9.621602e-01 -5.955085e-02 6.218986e-05 -6.746979e-02 6.230689e-05 -6.747025e-02 9.618835e-01 -6.010071e-02
9.905000e+09 9.621566e-01 -6.227300e-02 -7.465421e-06 -6.518191e-02 -7.347592e-06 -6.518237e-02 9.618781e-01 -6.282421e-02
9.940000e+09 9.621401e-01 -6.498878e-02 -6.378421e-05 -6.289996e-02 -6.366577e-05 -6.290043e-02 9.618596e-01 -6.554135e-02
9.975000e+09 9.621107e-01 -6.769828e-02 -1.068894e-04 -6.062392e-02 -1.067705e-04 -6.062439e-02 9.618284e-01 -6.825220e-02
1.001000e+10 9.620687e-01 -7.040157e-02 -1.368999e-04 -5.835378e-02 -1.367808e-04 -5.835426e-02 9.617844e-01 -7.095684e-02
1.004500e+10 9.620142e-01 -7.309875e-02 -1.539300e-04 -5.608953e-02 -1.538109e-04 -5.609002e-02 9.617280e-01 -7.365536e-02
1.008000e+10 9.619474e-01 -7.578993e-02 -1.580892e-04 -5.383115e-02 -1.579703e-04 -5.383164e-02 9.616593e-01 -7.634787e-02
1.011500e+10 9.618684e-01 -7.847522e-02 -1.494818e-04 -5.157860e-02 -1.493633e-04 -5.157910e-02 9.615783e-01 -7.903449e-02
1.015000e+10 9.617773e-01 -8.115474e-02 -1.282064e-04 -4.933187e-02 -1.280885e-04 -4.933237e-02 9.614853e-01 -8.171533e-02
1.018500e+10 9.616742e-01 -8.382862e-02 -9.435581e-05 -4.709093e-02 -9.423884e-05 -4.709144e-02 9.613803e-01 -8.439052e-02
1.022000e+10 9.615593e-01 -8.649698e-02 -4.801703e-05 -4.485575e-02 -4.790114e-05 -4.485626e-02 9.612634e-01 -8.706019e-02
1.025500e+10 9.614326e-01 -8.915995e-02 1.072908e-05 -4.262630e-02 1.084367e-05 -4.262682e-02 9.611347e-01 -8.972445e-02
1.029000e+10 9.612940e-01 -9.181765e-02 8.180767e-05 -4.040256e-02 8.192076e-05 -4.040308e-02 9.609942e-01 -9.238344e-02
1.032500e+10 9.611438e-01 -9.447021e-02 1.651498e-04 -3.818449e-02 1.652612e-04 -3.818501e-02 9.608419e-01 -9.503728e-02
1.036000e+10 9.609818e-01 -9.711774e-02 2.606925e-04 -3.597206e-02 2.608019e-04 -3.597259e-02 9.606779e-01 -9.768607e-02
1.039500e+10 9.608081e-01 -9.976034e-02 3.683781e-04 -3.376527e-02 3.684854e-04 -3.376580e-02 9.605022e-01 -1.003299e-01
1.043000e+10 9.606226e-01 -1.023981e-01 4.881543e-04 -3.156407e-02 4.882593e-04 -3.156461e-02 9.603147e-01 -1.029689e-01
1.046500e+10 9.604254e-01 -1.050311e-01 6.199736e-04 -2.936846e-02 6.200762e-04 -2.936900e-02 9.601154e-01 -1.056032e-01
1.050000e+10 9.602163e-01 -1.076595e-01 7.637932e-04 -2.717841e-02 7.638931e-04 -2.717896e-02 9.599043e-01 -1.082328e-01
1.053500e+10 9.599954e-01 -1.102832e-01 9.195737e-04 -2.499393e-02 9.196709e-04 -2.499448e-02 9.596813e-01 -1.108577e-01
1.057000e+10 9.597624e-01 -1.129024e-01 1.087279e-03 -2.281500e-02 1.087374e-03 -2.281556e-02 9.594463e-01 -1.134780e-01
1.060500e+10 9.595175e-01 -1.155170e-01 1.266877e-03 -2.064162e-02 1.266968e-03 -2.064218e-02 9.591993e-01 -1.160938e-01
1.064000e+10 9.592604e-01 -1.181270e-01 1.458336e-03 -1.847380e-02 1.458424e-03 -1.847436e-02 9.589402e-01 -1.187050e-01
1.067500e+10 9.589912e-01 -1.207324e-01 1.661626e-03 -1.631154e-02 1.661711e-03 -1.631211e-02 9.586689e-01 -1.213116e-01
1.071000e+10 9.587097e-01 -1.233333e-01 1.876718e-03 -1.415486e-02 1.876799e-03 -1.415543e-02 9.583853e-01 -1.239135e-01
1.074500e+10 9.584159e-01 -1.259295e-01 2.103583e-03 -1.200379e-02 2.103661e-03 -1.200436e-02 9.580893e-01 -1.265108e-01
1.078000e+10 9.581096e-01 -1.285209e-01 2.342190e-03 -9.858335e-03 2.342265e-03 -9.858910e-03 9.577810e-01 -1.291034e-01
1.081500e+10 9.577909e-01 -1.311075e-01 2.592510e-03 -7.718539e-03 2.592581e-03 -7.719117e-03 9.574602e-01 -1.316911e-01
1.085000e+10 9.574596e-01 -1.336892e-01 2.854507e-03 -5.584435e-03 2.854575e-03 -5.585015e-03 9.571268e-01 -1.342738e-01
1.088500e+10 9.571157e-01 -1.362659e-01 3.128146e-03 -3.456062e-03 3.128210e-03 -3.456644e-03 9.567808e-01 -1.368515e-01
1.092000e+10 9.567592e-01 -1.388373e-01 3.413386e-03 -1.333464e-03 3.413447e-03 -1.334047e-03 9.564222e-01 -1.394240e-01
1.095500e+10 9.563901e-01 -1.414034e-01 3.710185e-03 7.833135e-04 3.710242e-03 7.827290e-04 9.560510e-01 -1.419912e-01
1.099000e+10 9.560083e-01 -1.439640e-01 4.018493e-03 2.894219e-03 4.018547e-03 2.893634e-03 9.556672e-01 -1.445528e-01
1.102500e+10 9.556139e-01 -1.465190e-01 4.338259e-03 4.999202e-03 4.338309e-03 4.998615e-03 9.552707e-01 -1.471087e-01
1.106000e+10 9.552069e-01 -1.490681e-01 4.669424e-03 7.098207e-03 4.669471e-03 7.097619e-03 9.548616e-01 -1.496588e-01
1.109500e+10 9.547874e-01 -1.516112e-01 5.011924e-03 9.191181e-03 5.011968e-03 9.190592e-03 9.544400e-01 -1.522029e-01
1.113000e+10 9.543554e-01 -1.541480e-01 5.365691e-03 1.127807e-02 5.365732e-03 1.127748e-02 9.540059e-01 -1.547407e-01
1.116500e+10 9.539111e-01 -1.566785e-01 5.730651e-03 1.335882e-02 5.730689e-03 1.335823e-02 9.535595e-01 -1.572722e-01
1.120000e+10 9.534545e-01 -1.592025e-01 6.106724e-03 1.543337e-02 6.106758e-03 1.543278e-02 9.531009e-01 -1.597971e-01
1.123500e+10 9.529858e-01 -1.617197e-01 6.493825e-03 1.750169e-02 6.493856e-03 1.750110e-02 9.526301e-01 -1.623153e-01
1.127000e+10 9.525052e-01 -1.642301e-01 6.891864e-03 1.956371e-02 6.891892e-03 1.956312e-02 9.521474e-01 -1.648265e-01
1.130500e+10 9.520128e-01 -1.667334e-01 7.300746e-03 2.161940e-02 7.300771e-03 2.161882e-02 9.516529e-01 -1.673308e-01
1.134000e+10 9.515088e-01 -1.692296e-01 7.720373e-03 2.366873e-02 7.720395e-03 2.366814e-02 9.511469e-01 -1.698279e-01
1.137500e+10 9.509935e-01 -1.717185e-01 8.150642e-03 2.571165e-02 8.150661e-03 2.571106e-02 9.506295e-01 -1.723177e-01
1.141000e+10 9.504670e-01 -1.742000e-01 8.591446e-03 2.774813e-02 8.591463e-03 2.774755e-02 9.501009e-01 -1.748002e-01
1.144500e+10 9.499296e-01 -1.766741e-01 9.042680e-03 2.977817e-02 9.042693e-03 2.977758e-02 9.495615e-01 -1.772752e-01
1.148000e+10 9.493815e-01 -1.791407e-01 9.504232e-03 3.180173e-02 9.504243e-03 3.180115e-02 9.490113e-01 -1.797427e-01
1.151500e+10 9.488230e-01 -1.815997e-01 9.975993e-03 3.381882e-02 9.976001e-03 3.381824e-02 9.484507e-01 -1.822026e-01
1.155000e+10 9.482543e-01 -1.840513e-01 1.045785e-02 3.582943e-02 1.045786e-02 3.582885e-02 9.478800e-01 -1.846551e-01
1.158500e+10 9.476757e-01 -1.864953e-01 1.094970e-02 3.783356e-02 1.094970e-02 3.783299e-02 9.472993e-01 -1.871000e-01
1.162000e+10 9.470874e-01 -1.889318e-01 1.145143e-02 3.983124e-02 1.145143e-02 3.983066e-02 9.467089e-01 -1.895374e-01
1.165500e+10 9.464897e-01 -1.913610e-01 1.196294e-02 4.182247e-02 1.196294e-02 4.182190e-02 9.461091e-01 -1.919675e-01
1.169000e+10 9.458827e-01 -1.937828e-01 1.248412e-02 4.380729e-02 1.248412e-02 4.380672e-02 9.455000e-01 -1.943902e-01
1.172500e+10 9.452668e-01 -1.961974e-01 1.301488e-02 4.578573e-02 1.301488e-02 4.578516e-02 9.448820e-01 -1.968057e-01
1.176000e+10 9.446421e-01 -1.986049e-01 1.355513e-02 4.775782e-02 1.355513e-02 4.775726e-02 9.442552e-01 -1.992141e-01
1.179500e+10 9.440088e-01 -2.010055e-01 1.410478e-02 4.972361e-02 1.410478e-02 4.972305e-02 9.436198e-01 -2.016156e-01
1.183000e+10 9.433671e-01 -2.033994e-01 1.466376e-02 5.168315e-02 1.466375e-02 5.168260e-02 9.429759e-01 -2.040103e-01
1.186500e+10 9.427171e-01 -2.057868e-01 1.523199e-02 5.363649e-02 1.523198e-02 5.363594e-02 9.423237e-01 -2.063986e-01
1.190000e+10 9.420589e-01 -2.081678e-01 1.580941e-02 5.558369e-02 1.580939e-02 5.558314e-02 9.416634e-01 -2.087804e-01
1.193500e+10 9.413926e-01 -2.105427e-01 1.639596e-02 5.752480e-02 1.639594e-02 5.752426e-02 9.409950e-01 -2.111561e-01
1.197000e+10 9.407184e-01 -2.129116e-01 1.699159e-02 5.945987e-02 1.699158e-02 5.945934e-02 9.403186e-01 -2.135259e-01
1.200500e+10 9.400362e-01 -2.152749e-01 1.759628e-02 6.138898e-02 1.759626e-02 6.138845e-02 9.396342e-01 -2.158900e-01
1.204000e+10 9.393460e-01 -2.176327e-01 1.820998e-02 6.331217e-02 1.820997e-02 6.331164e-02 9.389418e-01 -2.182487e-01
1.207500e+10 9.386478e-01 -2.199853e-01 1.883269e-02 6.522950e-02 1.883267e-02 6.522898e-02 9.382414e-01 -2.206020e-01
1.211000e+10 9.379417e-01 -2.223328e-01 1.946438e-02 6.714101e-02 1.946436e-02 6.714050e-02 9.375330e-01 -2.229504e-01
1.214500e+10 9.372274e-01 -2.246755e-01 2.010504e-02 6.904677e-02 2.010503e-02 6.904627e-02 9.368165e-01 -2.252938e-01
1.218000e+10 9.365049e-01 -2.270136e-01 2.075470e-02 7.094681e-02 2.075468e-02 7.094631e-02 9.360917e-01 -2.276327e-01
1.221500e+10 9.357740e-01 -2.293472e-01 2.141335e-02 7.284117e-02 2.141333e-02 7.284068e-02 9.353586e-01 -2.299670e-01
1.225000e+10 9.350346e-01 -2.316765e-01 2.208101e-02 7.472988e-02 2.208099e-02 7.472939e-02 9.346169e-01 -2.322970e-01
1.228500e+10 9.342866e-01 -2.340017e-01 2.275770e-02 7.661295e-02 2.275768e-02 7.661248e-02 9.338666e-01 -2.346229e-01
1.232000e+10 9.335296e-01 -2.363227e-01 2.344345e-02 7.849041e-02 2.344344e-02 7.848994e-02 9.331074e-01 -2.369446e-01
1.235500e+10 9.327636e-01 -2.386397e-01 2.413828e-02 8.036226e-02 2.413828e-02 8.036180e-02 9.323390e-01 -2.392622e-01
1.239000e+10 9.319882e-01 -2.409528e-01 2.484224e-02 8.222849e-02 2.484223e-02 8.222803e-02 9.315613e-01 -2.415759e-01
1.242500e+10 9.312033e-01 -2.432618e-01 2.555535e-02 8.408908e-02 2.555535e-02 8.408864e-02 9.307741e-01 -2.438856e-01
1.246000e+10 9.304085e-01 -2.455669e-01 2.627764e-02 8.594402e-02 2.627764e-02 8.594359e-02 9.299771e-01 -2.461912e-01
1.249500e+10 9.296038e-01 -2.478679e-01 2.700915e-02 8.779327e-02 2.700916e-02 8.779285e-02 9.291700e-01 -2.484928e-01
1.253000e+10 9.287888e-01 -2.501648e-01 2.774990e-02 8.963679e-02 2.774991e-02 8.963637e-02 9.283527e-01 -2.507902e-01
1.256500e+10 9.279633e-01 -2.524574e-01 2.849992e-02 9.147452e-02 2.849994e-02 9.147411e-02 9.275249e-01 -2.530834e-01
1.260000e+10 9.271271e-01 -2.547455e-01 2.925923e-02 9.330639e-02 2.925926e-02 9.330600e-02 9.266864e-01 -2.553720e-01
1.263500e+10 9.262800e-01 -2.570290e-01 3.002784e-02 9.513235e-02 3.002787e-02 9.513197e-02 9.258370e-01 -2.576560e-01
1.267000e+10 9.254219e-01 -2.593077e-01 3.080576e-02 9.695232e-02 3.080580e-02 9.695194e-02 9.249766e-01 -2.599350e-01
1.270500e+10 9.245525e-01 -2.615812e-01 3.159298e-02 9.876620e-02 3.159303e-02 9.876583e-02 9.241049e-01 -2.622090e-01
1.274000e+10 9.236719e-01 -2.638493e-01 3.238949e-02 1.005739e-01 3.238955e-02 1.005736e-01 9.232220e-01 -2.644775e-01
1.277500e+10 9.227798e-01 -2.661117e-01 3.319527e-02 1.023754e-01 3.319534e-02 1.023750e-01 9.223277e-01 -2.667403e-01
1.281000e+10 9.218763e-01 -2.683681e-01 3.401029e-02 1.041704e-01 3.401037e-02 1.041701e-01 9.214219e-01 -2.689971e-01
1.284500e+10 9.209613e-01 -2.706181e-01 3.483450e-02 1.059591e-01 3.483459e-02 1.059587e-01 9.205047e-01 -2.712475e-01
1.288000e+10 9.200349e-01 -2.728615e-01 3.566785e-02 1.077412e-01 3.566795e-02 1.077408e-01 9.195760e-01 -2.734912e-01
1.291500e+10 9.190972e-01 -2.750978e-01 3.651027e-02 1.095166e-01 3.651038e-02 1.095163e-01 9.186360e-01 -2.757278e-01
1.295000e+10 9.181482e-01 -2.773268e-01 3.736168e-02 1.112853e-01 3.736181e-02 1.112849e-01 9.176848e-01 -2.779571e-01
1.298500e+10 9.171881e-01 -2.795481e-01 3.822199e-02 1.130471e-01 3.822213e-02 1.130468e-01 9.167225e-01 -2.801787e-01
1.302000e+10 9.162171e-01 -2.817613e-01 3.909111e-02 1.148020e-01 3.909127e-02 1.148017e-01 9.157493e-01 -2.823922e-01
1.305500e+10 9.152355e-01 -2.839662e-01 3.996892e-02 1.165500e-01 3.996909e-02 1.165497e-01 9.147655e-01 -2.845975e-01
1.309000e+10 9.142435e-01 -2.861626e-01 4.085531e-02 1.182908e-01 4.085549e-02 1.182906e-01 9.137713e-01 -2.867941e-01
1.312500e+10 9.132414e-01 -2.883501e-01 4.175014e-02 1.200246e-01 4.175034e-02 1.200243e-01 9.127671e-01 -2.889819e-01
1.316000e+10 9.122297e-01 -2.905285e-01 4.265329e-02 1.217512e-01 4.265351e-02 1.217509e-01 9.117531e-01 -2.911606e-01
1.319500e+10 9.112086e-01 -2.926977e-01 4.356461e-02 1.234706e-01 4.356485e-02 1.234703e-01 9.107299e-01 -2.933301e-01
1.323000e+10 9.101785e-01 -2.948575e-01 4.448397e-02 1.251828e-01 4.448422e-02 1.251825e-01 9.096977e-01 -2.954902e-01
1.326500e+10 9.091400e-01 -2.970078e-01 4.541122e-02 1.268878e-01 4.541149e-02 1.268875e-01 9.086569e-01 -2.976408e-01
1.330000e+10 9.080933e-01 -2.991487e-01 4.634621e-02 1.285855e-01 4.634650e-02 1.285853e-01 9.076082e-01 -2.997820e-01
1.333500e+10 9.070391e-01 -3.012800e-01 4.728880e-02 1.302761e-01 4.728910e-02 1.302759e-01 9.065517e-01 -3.019136e-01
1.337000e+10 9.059776e-01 -3.034019e-01 4.823884e-02 1.319595e-01 4.823917e-02 1.319593e-01 9.054881e-01 -3.040358e-01
1.340500e+10 9.049094e-01 -3.055144e-01 4.919621e-02 1.336359e-01 4.919656e-02 1.336356e-01 9.044177e-01 -3.061487e-01
1.344000e+10 9.038349e-01 -3.076178e-01 5.016078e-02 1.353052e-01 5.016114e-02 1.353049e-01 9.033410e-01 -3.082524e-01
1.347500e+10 9.027545e-01 -3.097123e-01 5.113242e-02 1.369675e-01 5.113280e-02 1.369673e-01 9.022584e-01 -3.103472e-01
1.351000e+10 9.016685e-01 -3.117981e-01 5.211103e-02 1.386230e-01 5.211143e-02 1.386227e-01 9.011703e-01 -3.124333e-01
1.354500e+10 9.005774e-01 -3.138755e-01 5.309651e-02 1.402717e-01 5.309693e-02 1.402715e-01 9.000770e-01 -3.145111e-01
1.358000e+10 8.994815e-01 -3.159449e-01 5.408878e-02 1.419138e-01 5.408921e-02 1.419135e-01 8.989788e-01 -3.165809e-01
1.361500e+10 8.983810e-01 -3.180068e-01 5.508777e-02 1.435493e-01 5.508822e-02 1.435490e-01 8.978761e-01 -3.186430e-01
1.365000e+10 8.972763e-01 -3.200614e-01 5.609342e-02 1.451784e-01 5.609389e-02 1.451782e-01 8.967690e-01 -3.206981e-01
1.368500e+10 8.961673e-01 -3.221094e-01 5.710571e-02 1.468012e-01 5.710620e-02 1.468010e-01 8.956578e-01 -3.227464e-01
1.372000e+10 8.950544e-01 -3.241512e-01 5.812462e-02 1.484179e-01 5.812513e-02 1.484177e-01 8.945426e-01 -3.247886e-01
1.375500e+10 8.939375e-01 -3.261874e-01 5.915016e-02 1.500286e-01 5.915068e-02 1.500283e-01 8.934233e-01 -3.268250e-01
1.379000e+10 8.928166e-01 -3.282184e-01 6.018233e-02 1.516333e-01 6.018287e-02 1.516331e-01 8.923001e-01 -3.288563e-01
1.382500e+10 8.916917e-01 -3.302447e-01 6.122118e-02 1.532323e-01 6.122174e-02 1.532321e-01 8.911728e-01 -3.308830e-01
1.386000e+10 8.905627e-01 -3.322670e-01 6.226678e-02 1.548257e-01 6.226735e-02 1.548254e-01 8.900413e-01 -3.329055e-01
1.389500e+10 8.894292e-01 -3.342856e-01 6.331918e-02 1.564134e-01 6.331977e-02 1.564132e-01 8.889054e-01 -3.349244e-01
1.393000e+10 8.882911e-01 -3.363011e-01 6.437849e-02 1.579958e-01 6.437910e-02 1.579955e-01 8.877649e-01 -3.369402e-01
1.396500e+10 8.871480e-01 -3.383139e-01 6.544481e-02 1.595727e-01 6.544543e-02 1.595724e-01 8.866193e-01 -3.389532e-01
1.400000e+10 8.859995e-01 -3.403245e-01 6.651825e-02 1.611443e-01 6.651889e-02 1.611440e-01 8.854683e-01 -3.409640e-01
