#   Hz   S  RI   R   50
!
0.000000e+00 2.961502e-02 0.000000e+00 9.555368e-01 0.000000e+00 9.555362e-01 0.000000e+00 2.962721e-02 0.000000e+00
5.000000e+07 2.982908e-02 1.368511e-02 9.553174e-01 -1.459687e-02 9.553168e-01 -1.459685e-02 2.984124e-02 1.368130e-02
1.000000e+08 3.047074e-02 2.735220e-02 9.546598e-01 -2.917521e-02 9.546592e-01 -2.917519e-02 3.048283e-02 2.734458e-02
1.500000e+08 3.153850e-02 4.098329e-02 9.535655e-01 -4.371660e-02 9.535649e-01 -4.371656e-02 3.155045e-02 4.097187e-02
2.000000e+08 3.302981e-02 5.456058e-02 9.520372e-01 -5.820272e-02 9.520366e-01 -5.820266e-02 3.304159e-02 5.454537e-02
2.500000e+08 3.494117e-02 6.806646e-02 9.500783e-01 -7.261550e-02 9.500777e-01 -7.261543e-02 3.495272e-02 6.804747e-02
3.000000e+08 3.726809e-02 8.148362e-02 9.476937e-01 -8.693716e-02 9.476931e-01 -8.693708e-02 3.727936e-02 8.146085e-02
3.500000e+08 4.000516e-02 9.479508e-02 9.448887e-01 -1.011503e-01 9.448881e-01 -1.011502e-01 4.001610e-02 9.476855e-02
4.000000e+08 4.314603e-02 1.079843e-01 9.416700e-01 -1.152378e-01 9.416694e-01 -1.152377e-01 4.315660e-02 1.079540e-01
4.500000e+08 4.668350e-02 1.210351e-01 9.380450e-01 -1.291832e-01 9.380444e-01 -1.291831e-01 4.669365e-02 1.210011e-01
5.000000e+08 5.060954e-02 1.339321e-01 9.340218e-01 -1.429706e-01 9.340212e-01 -1.429705e-01 5.061922e-02 1.338944e-01
5.500000e+08 5.491533e-02 1.466601e-01 9.296097e-01 -1.565846e-01 9.296091e-01 -1.565844e-01 5.492449e-02 1.466187e-01
6.000000e+08 5.959130e-02 1.592049e-01 9.248183e-01 -1.700103e-01 9.248178e-01 -1.700102e-01 5.959990e-02 1.591598e-01
6.500000e+08 6.462722e-02 1.715527e-01 9.196583e-01 -1.832338e-01 9.196578e-01 -1.832336e-01 6.463522e-02 1.715040e-01
7.000000e+08 7.001222e-02 1.836905e-01 9.141408e-01 -1.962417e-01 9.141403e-01 -1.962416e-01 7.001957e-02 1.836382e-01
7.500000e+08 7.573485e-02 1.956062e-01 9.082777e-01 -2.090215e-01 9.082771e-01 -2.090213e-01 7.574152e-02 1.955503e-01
8.000000e+08 8.178316e-02 2.072882e-01 9.020811e-01 -2.215614e-01 9.020806e-01 -2.215612e-01 8.178911e-02 2.072288e-01
8.500000e+08 8.814474e-02 2.187258e-01 8.955638e-01 -2.338503e-01 8.955633e-01 -2.338501e-01 8.814994e-02 2.186629e-01
9.000000e+08 9.480680e-02 2.299092e-01 8.887390e-01 -2.458782e-01 8.887386e-01 -2.458780e-01 9.481120e-02 2.298427e-01
9.500000e+08 1.017562e-01 2.408292e-01 8.816203e-01 -2.576358e-01 8.816198e-01 -2.576356e-01 1.017598e-01 2.407593e-01
1.000000e+09 1.089795e-01 2.514775e-01 8.742213e-01 -2.691146e-01 8.742209e-01 -2.691144e-01 1.089822e-01 2.514042e-01
1.050000e+09 1.164632e-01 2.618468e-01 8.665562e-01 -2.803069e-01 8.665557e-01 -2.803067e-01 1.164650e-01 2.617701e-01
1.100000e+09 1.241933e-01 2.719304e-01 8.586389e-01 -2.912060e-01 8.586385e-01 -2.912058e-01 1.241942e-01 2.718504e-01
1.150000e+09 1.321562e-01 2.817226e-01 8.504839e-01 -3.018060e-01 8.504835e-01 -3.018058e-01 1.321561e-01 2.816392e-01
1.200000e+09 1.403377e-01 2.912182e-01 8.421055e-01 -3.121018e-01 8.421051e-01 -3.121015e-01 1.403367e-01 2.911315e-01
1.250000e+09 1.487241e-01 3.004131e-01 8.335179e-01 -3.220889e-01 8.335175e-01 -3.220887e-01 1.487220e-01 3.003232e-01
1.300000e+09 1.573013e-01 3.093038e-01 8.247354e-01 -3.317640e-01 8.247350e-01 -3.317638e-01 1.572983e-01 3.092107e-01
1.350000e+09 1.660558e-01 3.178876e-01 8.157721e-01 -3.411243e-01 8.157717e-01 -3.411240e-01 1.660517e-01 3.177914e-01
1.400000e+09 1.749738e-01 3.261626e-01 8.066421e-01 -3.501677e-01 8.066418e-01 -3.501674e-01 1.749686e-01 3.260632e-01
1.450000e+09 1.840419e-01 3.341273e-01 7.973592e-01 -3.588929e-01 7.973588e-01 -3.588927e-01 1.840356e-01 3.340248e-01
1.500000e+09 1.932468e-01 3.417813e-01 7.879369e-01 -3.672994e-01 7.879366e-01 -3.672992e-01 1.932394e-01 3.416757e-01
1.550000e+09 2.025756e-01 3.491243e-01 7.783887e-01 -3.753872e-01 7.783883e-01 -3.753870e-01 2.025671e-01 3.490158e-01
1.600000e+09 2.120156e-01 3.561572e-01 7.687274e-01 -3.831569e-01 7.687271e-01 -3.831567e-01 2.120060e-01 3.560456e-01
1.650000e+09 2.215544e-01 3.628810e-01 7.589659e-01 -3.906098e-01 7.589657e-01 -3.906096e-01 2.215437e-01 3.627665e-01
1.700000e+09 2.311800e-01 3.692975e-01 7.491166e-01 -3.977476e-01 7.491163e-01 -3.977474e-01 2.311681e-01 3.691800e-01
1.750000e+09 2.408806e-01 3.754087e-01 7.391914e-01 -4.045728e-01 7.391911e-01 -4.045725e-01 2.408675e-01 3.752884e-01
1.800000e+09 2.506450e-01 3.812175e-01 7.292019e-01 -4.110879e-01 7.292017e-01 -4.110877e-01 2.506307e-01 3.810944e-01
1.850000e+09 2.604622e-01 3.867269e-01 7.191594e-01 -4.172963e-01 7.191592e-01 -4.172961e-01 2.604467e-01 3.866010e-01
1.900000e+09 2.703216e-01 3.919404e-01 7.090748e-01 -4.232017e-01 7.090746e-01 -4.232015e-01 2.703050e-01 3.918117e-01
1.950000e+09 2.802132e-01 3.968619e-01 6.989583e-01 -4.288079e-01 6.989581e-01 -4.288077e-01 2.801954e-01 3.967304e-01
2.000000e+09 2.901272e-01 4.014955e-01 6.888200e-01 -4.341194e-01 6.888198e-01 -4.341192e-01 2.901081e-01 4.013614e-01
2.050000e+09 3.000543e-01 4.058457e-01 6.786694e-01 -4.391409e-01 6.786692e-01 -4.391407e-01 3.000340e-01 4.057089e-01
2.100000e+09 3.099856e-01 4.099174e-01 6.685156e-01 -4.438771e-01 6.685154e-01 -4.438770e-01 3.099642e-01 4.097779e-01
2.150000e+09 3.199128e-01 4.137154e-01 6.583673e-01 -4.483334e-01 6.583671e-01 -4.483332e-01 3.198901e-01 4.135734e-01
2.200000e+09 3.298276e-01 4.172450e-01 6.482327e-01 -4.525151e-01 6.482325e-01 -4.525149e-01 3.298037e-01 4.171004e-01
2.250000e+09 3.397226e-01 4.205116e-01 6.381196e-01 -4.564277e-01 6.381195e-01 -4.564275e-01 3.396975e-01 4.203644e-01
2.300000e+09 3.495905e-01 4.235207e-01 6.280354e-01 -4.600770e-01 6.280353e-01 -4.600769e-01 3.495642e-01 4.233710e-01
2.350000e+09 3.594246e-01 4.262779e-01 6.179871e-01 -4.634688e-01 6.179870e-01 -4.634687e-01 3.593970e-01 4.261257e-01
2.400000e+09 3.692183e-01 4.287890e-01 6.079812e-01 -4.666092e-01 6.079811e-01 -4.666091e-01 3.691896e-01 4.286343e-01
2.450000e+09 3.789657e-01 4.310599e-01 5.980239e-01 -4.695041e-01 5.980238e-01 -4.695039e-01 3.789358e-01 4.309028e-01
2.500000e+09 3.886612e-01 4.330965e-01 5.881209e-01 -4.721596e-01 5.881209e-01 -4.721595e-01 3.886300e-01 4.329369e-01
2.550000e+09 3.982994e-01 4.349047e-01 5.782777e-01 -4.745819e-01 5.782777e-01 -4.745818e-01 3.982671e-01 4.347427e-01
2.600000e+09 4.078755e-01 4.364905e-01 5.684992e-01 -4.767772e-01 5.684992e-01 -4.767771e-01 4.078420e-01 4.363261e-01
2.650000e+09 4.173849e-01 4.378598e-01 5.587902e-01 -4.787516e-01 5.587901e-01 -4.787515e-01 4.173502e-01 4.376931e-01
2.700000e+09 4.268234e-01 4.390187e-01 5.491548e-01 -4.805113e-01 5.491548e-01 -4.805112e-01 4.267875e-01 4.388496e-01
2.750000e+09 4.361870e-01 4.399730e-01 5.395972e-01 -4.820624e-01 5.395972e-01 -4.820624e-01 4.361500e-01 4.398016e-01
2.800000e+09 4.454723e-01 4.407287e-01 5.301209e-01 -4.834111e-01 5.301209e-01 -4.834111e-01 4.454340e-01 4.405550e-01
2.850000e+09 4.546757e-01 4.412917e-01 5.207294e-01 -4.845634e-01 5.207293e-01 -4.845633e-01 4.546363e-01 4.411157e-01
2.900000e+09 4.637945e-01 4.416677e-01 5.114256e-01 -4.855252e-01 5.114256e-01 -4.855252e-01 4.637539e-01 4.414894e-01
2.950000e+09 4.728257e-01 4.418624e-01 5.022124e-01 -4.863025e-01 5.022124e-01 -4.863025e-01 4.727839e-01 4.416819e-01
3.000000e+09 4.817670e-01 4.418816e-01 4.930923e-01 -4.869012e-01 4.930923e-01 -4.869012e-01 4.817240e-01 4.416989e-01
3.050000e+09 4.906160e-01 4.417308e-01 4.840675e-01 -4.873269e-01 4.840675e-01 -4.873269e-01 4.905719e-01 4.415458e-01
3.100000e+09 4.993708e-01 4.414154e-01 4.751401e-01 -4.875854e-01 4.751401e-01 -4.875854e-01 4.993256e-01 4.412283e-01
3.150000e+09 5.080297e-01 4.409409e-01 4.663118e-01 -4.876821e-01 4.663118e-01 -4.876821e-01 5.079833e-01 4.407516e-01
3.200000e+09 5.165910e-01 4.403125e-01 4.575842e-01 -4.876225e-01 4.575842e-01 -4.876225e-01 5.165434e-01 4.401210e-01
3.250000e+09 5.250533e-01 4.395354e-01 4.489587e-01 -4.874119e-01 4.489588e-01 -4.874120e-01 5.250047e-01 4.393417e-01
3.300000e+09 5.334156e-01 4.386146e-01 4.404365e-01 -4.870556e-01 4.404365e-01 -4.870557e-01 5.333658e-01 4.384187e-01
3.350000e+09 5.416767e-01 4.375551e-01 4.320186e-01 -4.865587e-01 4.320186e-01 -4.865587e-01 5.416258e-01 4.373571e-01
3.400000e+09 5.498359e-01 4.363618e-01 4.237056e-01 -4.859261e-01 4.237057e-01 -4.859261e-01 5.497839e-01 4.361616e-01
3.450000e+09 5.578925e-01 4.350392e-01 4.154985e-01 -4.851626e-01 4.154985e-01 -4.851627e-01 5.578394e-01 4.348369e-01
3.500000e+09 5.658459e-01 4.335921e-01 4.073975e-01 -4.842731e-01 4.073975e-01 -4.842732e-01 5.657917e-01 4.333877e-01
3.550000e+09 5.736958e-01 4.320249e-01 3.994031e-01 -4.832622e-01 3.994032e-01 -4.832623e-01 5.736404e-01 4.318184e-01
3.600000e+09 5.814419e-01 4.303420e-01 3.915156e-01 -4.821342e-01 3.915156e-01 -4.821343e-01 5.813854e-01 4.301333e-01
3.650000e+09 5.890840e-01 4.285475e-01 3.837350e-01 -4.808936e-01 3.837350e-01 -4.808937e-01 5.890264e-01 4.283368e-01
3.700000e+09 5.966220e-01 4.266456e-01 3.760613e-01 -4.795447e-01 3.760614e-01 -4.795448e-01 5.965634e-01 4.264328e-01
3.750000e+09 6.040562e-01 4.246404e-01 3.684945e-01 -4.780914e-01 3.684945e-01 -4.780916e-01 6.039965e-01 4.244255e-01
3.800000e+09 6.113866e-01 4.225356e-01 3.610343e-01 -4.765379e-01 3.610343e-01 -4.765381e-01 6.113258e-01 4.223186e-01
3.850000e+09 6.186135e-01 4.203351e-01 3.536804e-01 -4.748880e-01 3.536804e-01 -4.748882e-01 6.185515e-01 4.201160e-01
3.900000e+09 6.257372e-01 4.180425e-01 3.464324e-01 -4.731455e-01 3.464324e-01 -4.731457e-01 6.256741e-01 4.178213e-01
3.950000e+09 6.327581e-01 4.156613e-01 3.392899e-01 -4.713140e-01 3.392899e-01 -4.713141e-01 6.326940e-01 4.154381e-01
4.000000e+09 6.396767e-01 4.131950e-01 3.322523e-01 -4.693970e-01 3.322524e-01 -4.693971e-01 6.396115e-01 4.129697e-01
4.050000e+09 6.464935e-01 4.106469e-01 3.253191e-01 -4.673979e-01 3.253192e-01 -4.673980e-01 6.464273e-01 4.104195e-01
4.100000e+09 6.532092e-01 4.080201e-01 3.184896e-01 -4.653200e-01 3.184897e-01 -4.653202e-01 6.531419e-01 4.077907e-01
4.150000e+09 6.598243e-01 4.053179e-01 3.117631e-01 -4.631666e-01 3.117632e-01 -4.631668e-01 6.597559e-01 4.050864e-01
4.200000e+09 6.663397e-01 4.025431e-01 3.051388e-01 -4.609406e-01 3.051389e-01 -4.609408e-01 6.662702e-01 4.023096e-01
4.250000e+09 6.727559e-01 3.996988e-01 2.986160e-01 -4.586452e-01 2.986160e-01 -4.586454e-01 6.726854e-01 3.994632e-01
4.300000e+09 6.790739e-01 3.967877e-01 2.921937e-01 -4.562831e-01 2.921938e-01 -4.562833e-01 6.790023e-01 3.965500e-01
4.350000e+09 6.852944e-01 3.938125e-01 2.858712e-01 -4.538571e-01 2.858712e-01 -4.538574e-01 6.852217e-01 3.935727e-01
4.400000e+09 6.914182e-01 3.907758e-01 2.796475e-01 -4.513700e-01 2.796475e-01 -4.513702e-01 6.913445e-01 3.905340e-01
4.450000e+09 6.974463e-01 3.876802e-01 2.735216e-01 -4.488243e-01 2.735217e-01 -4.488246e-01 6.973715e-01 3.874364e-01
4.500000e+09 7.033795e-01 3.845281e-01 2.674927e-01 -4.462225e-01 2.674928e-01 -4.462228e-01 7.033036e-01 3.842822e-01
4.550000e+09 7.092188e-01 3.813219e-01 2.615598e-01 -4.435671e-01 2.615598e-01 -4.435673e-01 7.091418e-01 3.810740e-01
4.600000e+09 7.149650e-01 3.780638e-01 2.557217e-01 -4.408603e-01 2.557218e-01 -4.408606e-01 7.148869e-01 3.778138e-01
4.650000e+09 7.206191e-01 3.747560e-01 2.499776e-01 -4.381044e-01 2.499777e-01 -4.381047e-01 7.205400e-01 3.745040e-01
4.700000e+09 7.261822e-01 3.714007e-01 2.443265e-01 -4.353016e-01 2.443265e-01 -4.353019e-01 7.261020e-01 3.711466e-01
4.750000e+09 7.316551e-01 3.679999e-01 2.387672e-01 -4.324539e-01 2.387672e-01 -4.324542e-01 7.315738e-01 3.677437e-01
4.800000e+09 7.370389e-01 3.645555e-01 2.332987e-01 -4.295634e-01 2.332987e-01 -4.295637e-01 7.369565e-01 3.642973e-01
4.850000e+09 7.423345e-01 3.610694e-01 2.279200e-01 -4.266320e-01 2.279201e-01 -4.266323e-01 7.422510e-01 3.608092e-01
4.900000e+09 7.475430e-01 3.575436e-01 2.226301e-01 -4.236615e-01 2.226301e-01 -4.236618e-01 7.474584e-01 3.572813e-01
4.950000e+09 7.526652e-01 3.539796e-01 2.174278e-01 -4.206538e-01 2.174278e-01 -4.206541e-01 7.525796e-01 3.537153e-01
5.000000e+09 7.577023e-01 3.503793e-01 2.123121e-01 -4.176106e-01 2.123122e-01 -4.176109e-01 7.576156e-01 3.501130e-01
5.050000e+09 7.626552e-01 3.467443e-01 2.072820e-01 -4.145336e-01 2.072821e-01 -4.145339e-01 7.625674e-01 3.464759e-01
5.100000e+09 7.675249e-01 3.430762e-01 2.023364e-01 -4.114243e-01 2.023365e-01 -4.114246e-01 7.674360e-01 3.428057e-01
5.150000e+09 7.723125e-01 3.393764e-01 1.974743e-01 -4.082843e-01 1.974743e-01 -4.082846e-01 7.722224e-01 3.391039e-01
5.200000e+09 7.770188e-01 3.356464e-01 1.926946e-01 -4.051152e-01 1.926946e-01 -4.051155e-01 7.769276e-01 3.353719e-01
5.250000e+09 7.816449e-01 3.318877e-01 1.879963e-01 -4.019182e-01 1.879963e-01 -4.019185e-01 7.815526e-01 3.316111e-01
5.300000e+09 7.861918e-01 3.281016e-01 1.833782e-01 -3.986949e-01 1.833783e-01 -3.986952e-01 7.860984e-01 3.278230e-01
5.350000e+09 7.906604e-01 3.242895e-01 1.788396e-01 -3.954465e-01 1.788396e-01 -3.954469e-01 7.905658e-01 3.240088e-01
5.400000e+09 7.950516e-01 3.204526e-01 1.743792e-01 -3.921744e-01 1.743792e-01 -3.921748e-01 7.949560e-01 3.201699e-01
5.450000e+09 7.993666e-01 3.165920e-01 1.699960e-01 -3.888798e-01 1.699961e-01 -3.888801e-01 7.992698e-01 3.163073e-01
5.500000e+09 8.036061e-01 3.127091e-01 1.656892e-01 -3.855638e-01 1.656892e-01 -3.855641e-01 8.035082e-01 3.124223e-01
5.550000e+09 8.077712e-01 3.088049e-01 1.614577e-01 -3.822276e-01 1.614577e-01 -3.822279e-01 8.076721e-01 3.085161e-01
5.600000e+09 8.118627e-01 3.048805e-01 1.573005e-01 -3.788723e-01 1.573005e-01 -3.788726e-01 8.117625e-01 3.045897e-01
5.650000e+09 8.158816e-01 3.009370e-01 1.532166e-01 -3.754989e-01 1.532166e-01 -3.754993e-01 8.157802e-01 3.006441e-01
5.700000e+09 8.198289e-01 2.969754e-01 1.492051e-01 -3.721086e-01 1.492051e-01 -3.721089e-01 8.197263e-01 2.966805e-01
5.750000e+09 8.237053e-01 2.929967e-01 1.452650e-01 -3.687022e-01 1.452650e-01 -3.687026e-01 8.236015e-01 2.926997e-01
5.800000e+09 8.275118e-01 2.890017e-01 1.413955e-01 -3.652808e-01 1.413955e-01 -3.652811e-01 8.274068e-01 2.887027e-01
5.850000e+09 8.312492e-01 2.849915e-01 1.375955e-01 -3.618452e-01 1.375955e-01 -3.618455e-01 8.311431e-01 2.846905e-01
5.900000e+09 8.349185e-01 2.809669e-01 1.338642e-01 -3.583963e-01 1.338642e-01 -3.583966e-01 8.348111e-01 2.806638e-01
5.950000e+09 8.385204e-01 2.769288e-01 1.302007e-01 -3.549350e-01 1.302007e-01 -3.549353e-01 8.384119e-01 2.766237e-01
6.000000e+09 8.420559e-01 2.728779e-01 1.266041e-01 -3.514620e-01 1.266041e-01 -3.514624e-01 8.419461e-01 2.725708e-01
6.050000e+09 8.455257e-01 2.688151e-01 1.230734e-01 -3.479782e-01 1.230734e-01 -3.479786e-01 8.454147e-01 2.685059e-01
6.100000e+09 8.489307e-01 2.647411e-01 1.196080e-01 -3.444844e-01 1.196080e-01 -3.444848e-01 8.488185e-01 2.644299e-01
6.150000e+09 8.522717e-01 2.606567e-01 1.162068e-01 -3.409812e-01 1.162068e-01 -3.409816e-01 8.521582e-01 2.603435e-01
6.200000e+09 8.555494e-01 2.565625e-01 1.128691e-01 -3.374694e-01 1.128691e-01 -3.374698e-01 8.554347e-01 2.562473e-01
6.250000e+09 8.587647e-01 2.524593e-01 1.095940e-01 -3.339497e-01 1.095940e-01 -3.339501e-01 8.586487e-01 2.521421e-01
6.300000e+09 8.619183e-01 2.483477e-01 1.063808e-01 -3.304226e-01 1.063808e-01 -3.304230e-01 8.618011e-01 2.480284e-01
6.350000e+09 8.650110e-01 2.442284e-01 1.032287e-01 -3.268889e-01 1.032287e-01 -3.268893e-01 8.648925e-01 2.439071e-01
6.400000e+09 8.680435e-01 2.401019e-01 1.001367e-01 -3.233492e-01 1.001367e-01 -3.233496e-01 8.679237e-01 2.397786e-01
6.450000e+09 8.710167e-01 2.359689e-01 9.710432e-02 -3.198040e-01 9.710431e-02 -3.198043e-01 8.708955e-01 2.356436e-01
6.500000e+09 8.739311e-01 2.318300e-01 9.413061e-02 -3.162539e-01 9.413060e-02 -3.162542e-01 8.738086e-01 2.315027e-01
6.550000e+09 8.767875e-01 2.276857e-01 9.121488e-02 -3.126994e-01 9.121486e-02 -3.126998e-01 8.766638e-01 2.273563e-01
6.600000e+09 8.795866e-01 2.235365e-01 8.835639e-02 -3.091411e-01 8.835637e-02 -3.091415e-01 8.794616e-01 2.232052e-01
6.650000e+09 8.823292e-01 2.193829e-01 8.555441e-02 -3.055796e-01 8.555440e-02 -3.055800e-01 8.822028e-01 2.190496e-01
6.700000e+09 8.850158e-01 2.152256e-01 8.280824e-02 -3.020152e-01 8.280822e-02 -3.020156e-01 8.848881e-01 2.148903e-01
6.750000e+09 8.876472e-01 2.110649e-01 8.011718e-02 -2.984485e-01 8.011716e-02 -2.984489e-01 8.875181e-01 2.107276e-01
6.800000e+09 8.902240e-01 2.069013e-01 7.748053e-02 -2.948799e-01 7.748051e-02 -2.948803e-01 8.900935e-01 2.065621e-01
6.850000e+09 8.927469e-01 2.027353e-01 7.489762e-02 -2.913099e-01 7.489760e-02 -2.913103e-01 8.926150e-01 2.023941e-01
6.900000e+09 8.952164e-01 1.985674e-01 7.236779e-02 -2.877388e-01 7.236776e-02 -2.877392e-01 8.950832e-01 1.982242e-01
6.950000e+09 8.976333e-01 1.943979e-01 6.989037e-02 -2.841672e-01 6.989035e-02 -2.841676e-01 8.974988e-01 1.940527e-01
7.000000e+09 8.999982e-01 1.902273e-01 6.746473e-02 -2.805955e-01 6.746471e-02 -2.805959e-01 8.998622e-01 1.898801e-01
7.050000e+09 9.023116e-01 1.860559e-01 6.509024e-02 -2.770239e-01 6.509021e-02 -2.770243e-01 9.021742e-01 1.857068e-01
7.100000e+09 9.045742e-01 1.818842e-01 6.276626e-02 -2.734529e-01 6.276623e-02 -2.734533e-01 9.044354e-01 1.815332e-01
7.150000e+09 9.067865e-01 1.777126e-01 6.049219e-02 -2.698828e-01 6.049216e-02 -2.698832e-01 9.066463e-01 1.773596e-01
7.200000e+09 9.089492e-01 1.735413e-01 5.826743e-02 -2.663141e-01 5.826740e-02 -2.663145e-01 9.088075e-01 1.731864e-01
7.250000e+09 9.110627e-01 1.693709e-01 5.609139e-02 -2.627470e-01 5.609135e-02 -2.627474e-01 9.109195e-01 1.690140e-01
7.300000e+09 9.131277e-01 1.652015e-01 5.396347e-02 -2.591818e-01 5.396344e-02 -2.591822e-01 9.129831e-01 1.648427e-01
7.350000e+09 9.151447e-01 1.610336e-01 5.188312e-02 -2.556189e-01 5.188309e-02 -2.556193e-01 9.149986e-01 1.606729e-01
7.400000e+09 9.171142e-01 1.568674e-01 4.984977e-02 -2.520586e-01 4.984973e-02 -2.520591e-01 9.169666e-01 1.565048e-01
7.450000e+09 9.190369e-01 1.527033e-01 4.786286e-02 -2.485012e-01 4.786282e-02 -2.485017e-01 9.188878e-01 1.523388e-01
7.500000e+09 9.209131e-01 1.485416e-01 4.592185e-02 -2.449470e-01 4.592181e-02 -2.449474e-01 9.207625e-01 1.481752e-01
7.550000e+09 9.227435e-01 1.443825e-01 4.402621e-02 -2.413963e-01 4.402617e-02 -2.413967e-01 9.225914e-01 1.440143e-01
7.600000e+09 9.245285e-01 1.402264e-01 4.217540e-02 -2.378492e-01 4.217536e-02 -2.378496e-01 9.243748e-01 1.398563e-01
7.650000e+09 9.262686e-01 1.360736e-01 4.036892e-02 -2.343062e-01 4.036888e-02 -2.343066e-01 9.261134e-01 1.357016e-01
7.700000e+09 9.279644e-01 1.319243e-01 3.860625e-02 -2.307674e-01 3.860621e-02 -2.307678e-01 9.278077e-01 1.315504e-01
7.750000e+09 9.296163e-01 1.277787e-01 3.688689e-02 -2.272331e-01 3.688685e-02 -2.272335e-01 9.294580e-01 1.274030e-01
7.800000e+09 9.312248e-01 1.236372e-01 3.521035e-02 -2.237035e-01 3.521030e-02 -2.237039e-01 9.310649e-01 1.232597e-01
7.850000e+09 9.327904e-01 1.195000e-01 3.357614e-02 -2.201789e-01 3.357609e-02 -2.201793e-01 9.326289e-01 1.191206e-01
7.900000e+09 9.343135e-01 1.153672e-01 3.198378e-02 -2.166595e-01 3.198374e-02 -2.166599e-01 9.341504e-01 1.149860e-01
7.950000e+09 9.357946e-01 1.112393e-01 3.043282e-02 -2.131455e-01 3.043277e-02 -2.131459e-01 9.356299e-01 1.108563e-01
8.000000e+09 9.372341e-01 1.071163e-01 2.892277e-02 -2.096372e-01 2.892272e-02 -2.096376e-01 9.370678e-01 1.067315e-01
8.050000e+09 9.386325e-01 1.029985e-01 2.745320e-02 -2.061346e-01 2.745315e-02 -2.061350e-01 9.384646e-01 1.026119e-01
8.100000e+09 9.399902e-01 9.888617e-02 2.602364e-02 -2.026381e-01 2.602359e-02 -2.026385e-01 9.398207e-01 9.849777e-02
8.150000e+09 9.413077e-01 9.477946e-02 2.463367e-02 -1.991478e-01 2.463362e-02 -1.991482e-01 9.411365e-01 9.438928e-02
8.200000e+09 9.425854e-01 9.067858e-02 2.328284e-02 -1.956639e-01 2.328279e-02 -1.956644e-01 9.424126e-01 9.028664e-02
8.250000e+09 9.438237e-01 8.658374e-02 2.197073e-02 -1.921866e-01 2.197068e-02 -1.921871e-01 9.436492e-01 8.619005e-02
8.300000e+09 9.450229e-01 8.249513e-02 2.069692e-02 -1.887161e-01 2.069687e-02 -1.887166e-01 9.448467e-01 8.209970e-02
8.350000e+09 9.461836e-01 7.841294e-02 1.946100e-02 -1.852526e-01 1.946094e-02 -1.852530e-01 9.460057e-01 7.801578e-02
8.400000e+09 9.473061e-01 7.433736e-02 1.826255e-02 -1.817961e-01 1.826249e-02 -1.817966e-01 9.471265e-01 7.393848e-02
8.450000e+09 9.483908e-01 7.026856e-02 1.710118e-02 -1.783470e-01 1.710112e-02 -1.783474e-01 9.482095e-01 6.986797e-02
8.500000e+09 9.494381e-01 6.620672e-02 1.597648e-02 -1.749053e-01 1.597643e-02 -1.749057e-01 9.492551e-01 6.580443e-02
8.550000e+09 9.504484e-01 6.215200e-02 1.488808e-02 -1.714711e-01 1.488802e-02 -1.714716e-01 9.502637e-01 6.174803e-02
8.600000e+09 9.514221e-01 5.810457e-02 1.383558e-02 -1.680448e-01 1.383552e-02 -1.680452e-01 9.512356e-01 5.769894e-02
8.650000e+09 9.523595e-01 5.406460e-02 1.281860e-02 -1.646263e-01 1.281855e-02 -1.646267e-01 9.521712e-01 5.365731e-02
8.700000e+09 9.532610e-01 5.003224e-02 1.183679e-02 -1.612158e-01 1.183673e-02 -1.612162e-01 9.530710e-01 4.962330e-02
8.750000e+09 9.541269e-01 4.600765e-02 1.088975e-02 -1.578135e-01 1.088970e-02 -1.578139e-01 9.539352e-01 4.559707e-02
8.800000e+09 9.549577e-01 4.199096e-02 9.977144e-03 -1.544195e-01 9.977086e-03 -1.544200e-01 9.547642e-01 4.157877e-02
8.850000e+09 9.557537e-01 3.798234e-02 9.098602e-03 -1.510340e-01 9.098544e-03 -1.510344e-01 9.555584e-01 3.756854e-02
8.900000e+09 9.565152e-01 3.398191e-02 8.253775e-03 -1.476570e-01 8.253717e-03 -1.476574e-01 9.563181e-01 3.356652e-02
8.950000e+09 9.572426e-01 2.998982e-02 7.442316e-03 -1.442887e-01 7.442258e-03 -1.442892e-01 9.570436e-01 2.957285e-02
9.000000e+09 9.579362e-01 2.600620e-02 6.663883e-03 -1.409292e-01 6.663825e-03 -1.409297e-01 9.577354e-01 2.558767e-02
9.050000e+09 9.585963e-01 2.203119e-02 5.918138e-03 -1.375787e-01 5.918079e-03 -1.375791e-01 9.583937e-01 2.161110e-02
9.100000e+09 9.592233e-01 1.806490e-02 5.204748e-03 -1.342372e-01 5.204689e-03 -1.342376e-01 9.590189e-01 1.764328e-02
9.150000e+09 9.598176e-01 1.410747e-02 4.523385e-03 -1.309048e-01 4.523326e-03 -1.309052e-01 9.596113e-01 1.368433e-02
9.200000e+09 9.603794e-01 1.015901e-02 3.873725e-03 -1.275817e-01 3.873666e-03 -1.275821e-01 9.601712e-01 9.734365e-03
9.250000e+09 9.609090e-01 6.219652e-03 3.255448e-03 -1.242680e-01 3.255389e-03 -1.242684e-01 9.606990e-01 5.793512e-03
9.300000e+09 9.614068e-01 2.289499e-03 2.668240e-03 -1.209637e-01 2.668181e-03 -1.209641e-01 9.611949e-01 1.861883e-03
9.350000e+09 9.618731e-01 -1.631332e-03 2.111789e-03 -1.176690e-01 2.111730e-03 -1.176694e-01 9.616593e-01 -2.060409e-03
9.400000e+09 9.623081e-01 -5.542732e-03 1.585789e-03 -1.143840e-01 1.585729e-03 -1.143844e-01 9.620924e-01 -5.973256e-03
9.450000e+09 9.627123e-01 -9.444596e-03 1.089936e-03 -1.111087e-01 1.089876e-03 -1.111091e-01 9.624947e-01 -9.876549e-03
9.500000e+09 9.630858e-01 -1.333682e-02 6.239313e-04 -1.078433e-01 6.238719e-04 -1.078437e-01 9.628663e-01 -1.377019e-02
9.550000e+09 9.634291e-01 -1.721930e-02 1.874800e-04 -1.045878e-01 1.874205e-04 -1.045883e-01 9.632077e-01 -1.765407e-02
9.600000e+09 9.637423e-01 -2.109194e-02 -2.197094e-04 -1.013424e-01 -2.197689e-04 -1.013428e-01 9.635190e-01 -2.152809e-02
9.650000e+09 9.640258e-01 -2.495465e-02 -5.979247e-04 -9.810703e-02 -5.979841e-04 -9.810749e-02 9.638006e-01 -2.539216e-02
9.700000e+09 9.642799e-01 -2.880732e-02 -9.474498e-04 -9.488190e-02 -9.475091e-04 -9.488236e-02 9.640527e-01 -2.924618e-02
9.750000e+09 9.645048e-01 -3.264988e-02 -1.268565e-03 -9.166705e-02 -1.268624e-03 -9.166751e-02 9.642756e-01 -3.309007e-02
9.800000e+09 9.647009e-01 -3.648223e-02 -1.561548e-03 -8.846256e-02 -1.561607e-03 -8.846302e-02 9.644697e-01 -3.692374e-02
9.850000e+09 9.648683e-01 -4.030428e-02 -1.826672e-03 -8.526850e-02 -1.826731e-03 -8.526896e-02 9.646352e-01 -4.074709e-02
9.900000e+09 9.650074e-01 -4.411596e-02 -2.064207e-03 -8.208495e-02 -2.064266e-03 -8.208541e-02 9.647724e-01 -4.456004e-02
9.950000e+09 9.651185e-01 -4.791718e-02 -2.274420e-03 -7.891197e-02 -2.274479e-03 -7.891244e-02 9.648814e-01 -4.836253e-02
1.000000e+10 9.652018e-01 -5.170786e-02 -2.457575e-03 -7.574965e-02 -2.457633e-03 -7.575012e-02 9.649628e-01 -5.215445e-02
1.005000e+10 9.652576e-01 -5.548792e-02 -2.613932e-03 -7.259805e-02 -2.613990e-03 -7.259852e-02 9.650165e-01 -5.593574e-02
1.010000e+10 9.652861e-01 -5.925729e-02 -2.743749e-03 -6.945722e-02 -2.743807e-03 -6.945770e-02 9.650430e-01 -5.970632e-02
1.015000e+10 9.652877e-01 -6.301591e-02 -2.847280e-03 -6.632725e-02 -2.847338e-03 -6.632773e-02 9.650426e-01 -6.346613e-02
1.020000e+10 9.652624e-01 -6.676368e-02 -2.924777e-03 -6.320819e-02 -2.924835e-03 -6.320867e-02 9.650153e-01 -6.721508e-02
1.025000e+10 9.652107e-01 -7.050056e-02 -2.976487e-03 -6.010010e-02 -2.976545e-03 -6.010058e-02 9.649616e-01 -7.095311e-02
1.030000e+10 9.651328e-01 -7.422647e-02 -3.002657e-03 -5.700304e-02 -3.002715e-03 -5.700352e-02 9.648816e-01 -7.468016e-02
1.035000e+10 9.650289e-01 -7.794135e-02 -3.003529e-03 -5.391707e-02 -3.003587e-03 -5.391755e-02 9.647757e-01 -7.839615e-02
1.040000e+10 9.648993e-01 -8.164514e-02 -2.979343e-03 -5.084224e-02 -2.979401e-03 -5.084273e-02 9.646440e-01 -8.210104e-02
1.045000e+10 9.647441e-01 -8.533777e-02 -2.930337e-03 -4.777861e-02 -2.930394e-03 -4.777910e-02 9.644868e-01 -8.579475e-02
1.050000e+10 9.645637e-01 -8.901918e-02 -2.856743e-03 -4.472623e-02 -2.856800e-03 -4.472672e-02 9.643043e-01 -8.947722e-02
1.055000e+10 9.643583e-01 -9.268933e-02 -2.758795e-03 -4.168515e-02 -2.758851e-03 -4.168565e-02 9.640968e-01 -9.314841e-02
1.060000e+10 9.641281e-01 -9.634815e-02 -2.636721e-03 -3.865542e-02 -2.636777e-03 -3.865592e-02 9.638646e-01 -9.680826e-02
1.065000e+10 9.638733e-01 -9.999560e-02 -2.490747e-03 -3.563709e-02 -2.490804e-03 -3.563759e-02 9.636077e-01 -1.004567e-01
1.070000e+10 9.635943e-01 -1.036316e-01 -2.321099e-03 -3.263020e-02 -2.321155e-03 -3.263070e-02 9.633266e-01 -1.040937e-01
1.075000e+10 9.632911e-01 -1.072562e-01 -2.127997e-03 -2.963479e-02 -2.128053e-03 -2.963530e-02 9.630214e-01 -1.077192e-01
1.080000e+10 9.629641e-01 -1.108692e-01 -1.911660e-03 -2.665092e-02 -1.911716e-03 -2.665143e-02 9.626923e-01 -1.113332e-01
1.085000e+10 9.626135e-01 -1.144706e-01 -1.672305e-03 -2.367862e-02 -1.672360e-03 -2.367913e-02 9.623395e-01 -1.149355e-01
1.090000e+10 9.622394e-01 -1.180604e-01 -1.410146e-03 -2.071793e-02 -1.410201e-03 -2.071845e-02 9.619633e-01 -1.185263e-01
1.095000e+10 9.618421e-01 -1.216386e-01 -1.125394e-03 -1.776889e-02 -1.125450e-03 -1.776941e-02 9.615640e-01 -1.221053e-01
1.100000e+10 9.614219e-01 -1.252051e-01 -8.182602e-04 -1.483154e-02 -8.183153e-04 -1.483206e-02 9.611416e-01 -1.256726e-01
1.105000e+10 9.609789e-01 -1.287598e-01 -4.889506e-04 -1.190591e-02 -4.890057e-04 -1.190644e-02 9.606965e-01 -1.292282e-01
1.110000e+10 9.605133e-01 -1.323028e-01 -1.376705e-04 -8.992046e-03 -1.377254e-04 -8.992576e-03 9.602288e-01 -1.327720e-01
1.115000e+10 9.600254e-01 -1.358339e-01 2.353776e-04 -6.089970e-03 2.353228e-04 -6.090503e-03 9.597388e-01 -1.363040e-01
1.120000e+10 9.595154e-01 -1.393533e-01 6.299932e-04 -3.199717e-03 6.299385e-04 -3.200253e-03 9.592266e-01 -1.398240e-01
1.125000e+10 9.589834e-01 -1.428607e-01 1.045978e-03 -3.213180e-04 1.045923e-03 -3.218580e-04 9.586926e-01 -1.433322e-01
1.130000e+10 9.584297e-01 -1.463562e-01 1.483136e-03 2.545197e-03 1.483081e-03 2.544654e-03 9.581367e-01 -1.468285e-01
1.135000e+10 9.578545e-01 -1.498398e-01 1.941273e-03 5.399801e-03 1.941218e-03 5.399254e-03 9.575594e-01 -1.503128e-01
1.140000e+10 9.572580e-01 -1.533114e-01 2.420197e-03 8.242467e-03 2.420143e-03 8.241916e-03 9.569607e-01 -1.537851e-01
1.145000e+10 9.566404e-01 -1.567711e-01 2.919719e-03 1.107317e-02 2.919665e-03 1.107261e-02 9.563410e-01 -1.572454e-01
1.150000e+10 9.560018e-01 -1.602187e-01 3.439651e-03 1.389188e-02 3.439596e-03 1.389132e-02 9.557002e-01 -1.606937e-01
1.155000e+10 9.553425e-01 -1.636542e-01 3.979807e-03 1.669858e-02 3.979752e-03 1.669802e-02 9.550388e-01 -1.641299e-01
1.160000e+10 9.546627e-01 -1.670778e-01 4.540003e-03 1.949325e-02 4.539949e-03 1.949269e-02 9.543568e-01 -1.675540e-01
1.165000e+10 9.539625e-01 -1.704892e-01 5.120059e-03 2.227587e-02 5.120004e-03 2.227530e-02 9.536545e-01 -1.709660e-01
1.170000e+10 9.532421e-01 -1.738885e-01 5.719794e-03 2.504641e-02 5.719739e-03 2.504584e-02 9.529320e-01 -1.743659e-01
1.175000e+10 9.525018e-01 -1.772758e-01 6.339030e-03 2.780486e-02 6.338975e-03 2.780428e-02 9.521895e-01 -1.777537e-01
1.180000e+10 9.517417e-01 -1.806508e-01 6.977593e-03 3.055120e-02 6.977538e-03 3.055062e-02 9.514272e-01 -1.811293e-01
1.185000e+10 9.509619e-01 -1.840138e-01 7.635308e-03 3.328542e-02 7.635253e-03 3.328483e-02 9.506453e-01 -1.844927e-01
1.190000e+10 9.501628e-01 -1.873646e-01 8.312003e-03 3.600749e-02 8.311948e-03 3.600690e-02 9.498440e-01 -1.878440e-01
1.195000e+10 9.493443e-01 -1.907032e-01 9.007510e-03 3.871741e-02 9.007454e-03 3.871682e-02 9.490234e-01 -1.911830e-01
1.200000e+10 9.485068e-01 -1.940296e-01 9.721659e-03 4.141516e-02 9.721603e-03 4.141457e-02 9.481837e-01 -1.945099e-01
1.205000e+10 9.476504e-01 -1.973438e-01 1.045428e-02 4.410074e-02 1.045423e-02 4.410014e-02 9.473252e-01 -1.978245e-01
1.210000e+10 9.467753e-01 -2.006458e-01 1.120522e-02 4.677412e-02 1.120517e-02 4.677352e-02 9.464479e-01 -2.011269e-01
1.215000e+10 9.458816e-01 -2.039356e-01 1.197431e-02 4.943531e-02 1.197425e-02 4.943470e-02 9.455520e-01 -2.044171e-01
1.220000e+10 9.449695e-01 -2.072132e-01 1.276139e-02 5.208428e-02 1.276133e-02 5.208367e-02 9.446378e-01 -2.076950e-01
1.225000e+10 9.440392e-01 -2.104786e-01 1.356630e-02 5.472104e-02 1.356624e-02 5.472042e-02 9.437053e-01 -2.109607e-01
1.230000e+10 9.430909e-01 -2.137318e-01 1.438888e-02 5.734558e-02 1.438882e-02 5.734495e-02 9.427548e-01 -2.142142e-01
1.235000e+10 9.421246e-01 -2.169727e-01 1.522898e-02 5.995788e-02 1.522892e-02 5.995726e-02 9.417864e-01 -2.174554e-01
1.240000e+10 9.411406e-01 -2.202015e-01 1.608645e-02 6.255796e-02 1.608639e-02 6.255733e-02 9.408002e-01 -2.206844e-01
1.245000e+10 9.401390e-01 -2.234180e-01 1.696113e-02 6.514580e-02 1.696107e-02 6.514516e-02 9.397965e-01 -2.239011e-01
1.250000e+10 9.391200e-01 -2.266222e-01 1.785288e-02 6.772139e-02 1.785282e-02 6.772075e-02 9.387754e-01 -2.271056e-01
1.255000e+10 9.380837e-01 -2.298143e-01 1.876155e-02 7.028475e-02 1.876149e-02 7.028411e-02 9.377369e-01 -2.302978e-01
1.260000e+10 9.370303e-01 -2.329942e-01 1.968699e-02 7.283587e-02 1.968692e-02 7.283521e-02 9.366814e-01 -2.334779e-01
1.265000e+10 9.359600e-01 -2.361618e-01 2.062905e-02 7.537474e-02 2.062899e-02 7.537408e-02 9.356089e-01 -2.366457e-01
1.270000e+10 9.348728e-01 -2.393173e-01 2.158760e-02 7.790137e-02 2.158754e-02 7.790071e-02 9.345196e-01 -2.398012e-01
1.275000e+10 9.337690e-01 -2.424606e-01 2.256250e-02 8.041576e-02 2.256244e-02 8.041509e-02 9.334136e-01 -2.429446e-01
1.280000e+10 9.326486e-01 -2.455917e-01 2.355361e-02 8.291791e-02 2.355354e-02 8.291724e-02 9.322911e-01 -2.460758e-01
1.285000e+10 9.315119e-01 -2.487106e-01 2.456078e-02 8.540783e-02 2.456071e-02 8.540716e-02 9.311523e-01 -2.491947e-01
1.290000e+10 9.303589e-01 -2.518174e-01 2.558389e-02 8.788552e-02 2.558382e-02 8.788485e-02 9.299972e-01 -2.523015e-01
1.295000e+10 9.291899e-01 -2.549120e-01 2.662280e-02 9.035099e-02 2.662273e-02 9.035031e-02 9.288260e-01 -2.553961e-01
1.300000e+10 9.280048e-01 -2.579945e-01 2.767738e-02 9.280424e-02 2.767731e-02 9.280356e-02 9.276388e-01 -2.584786e-01
1.305000e+10 9.268040e-01 -2.610649e-01 2.874750e-02 9.524528e-02 2.874743e-02 9.524459e-02 9.264359e-01 -2.615489e-01
1.310000e+10 9.255875e-01 -2.641232e-01 2.983303e-02 9.767412e-02 2.983296e-02 9.767342e-02 9.252172e-01 -2.646071e-01
1.315000e+10 9.243553e-01 -2.671694e-01 3.093385e-02 1.000908e-01 3.093378e-02 1.000901e-01 9.239830e-01 -2.676532e-01
1.320000e+10 9.231078e-01 -2.702035e-01 3.204983e-02 1.024952e-01 3.204976e-02 1.024945e-01 9.227334e-01 -2.706872e-01
1.325000e+10 9.218450e-01 -2.732256e-01 3.318086e-02 1.048875e-01 3.318078e-02 1.048868e-01 9.214684e-01 -2.737092e-01
1.330000e+10 9.205669e-01 -2.762356e-01 3.432680e-02 1.072676e-01 3.432672e-02 1.072669e-01 9.201883e-01 -2.767191e-01
1.335000e+10 9.192739e-01 -2.792337e-01 3.548754e-02 1.096356e-01 3.548746e-02 1.096349e-01 9.188931e-01 -2.797169e-01
1.340000e+10 9.179659e-01 -2.822198e-01 3.666297e-02 1.119914e-01 3.666288e-02 1.119907e-01 9.175831e-01 -2.827028e-01
1.345000e+10 9.166430e-01 -2.851939e-01 3.785296e-02 1.143351e-01 3.785288e-02 1.143344e-01 9.162582e-01 -2.856766e-01
1.350000e+10 9.153055e-01 -2.881560e-01 3.905741e-02 1.166667e-01 3.905733e-02 1.166660e-01 9.149186e-01 -2.886385e-01
1.355000e+10 9.139534e-01 -2.911063e-01 4.027621e-02 1.189862e-01 4.027612e-02 1.189854e-01 9.135644e-01 -2.915885e-01
1.360000e+10 9.125868e-01 -2.940446e-01 4.150924e-02 1.212936e-01 4.150914e-02 1.212928e-01 9.121958e-01 -2.945265e-01
1.365000e+10 9.112059e-01 -2.969711e-01 4.275639e-02 1.235889e-01 4.275630e-02 1.235881e-01 9.108128e-01 -2.974527e-01
1.370000e+10 9.098107e-01 -2.998858e-01 4.401757e-02 1.258722e-01 4.401747e-02 1.258714e-01 9.094155e-01 -3.003670e-01
1.375000e+10 9.084013e-01 -3.027886e-01 4.529266e-02 1.281434e-01 4.529256e-02 1.281426e-01 9.080041e-01 -3.032694e-01
1.380000e+10 9.069780e-01 -3.056797e-01 4.658157e-02 1.304026e-01 4.658147e-02 1.304018e-01 9.065787e-01 -3.061601e-01
1.385000e+10 9.055406e-01 -3.085590e-01 4.788419e-02 1.326498e-01 4.788409e-02 1.326491e-01 9.051394e-01 -3.090390e-01
1.390000e+10 9.040895e-01 -3.114266e-01 4.920043e-02 1.348851e-01 4.920033e-02 1.348843e-01 9.036862e-01 -3.119061e-01
1.395000e+10 9.026246e-01 -3.142825e-01 5.053019e-02 1.371083e-01 5.053008e-02 1.371075e-01 9.022193e-01 -3.147615e-01
1.400000e+10 9.011460e-01 -3.171267e-01 5.187338e-02 1.393196e-01 5.187326e-02 1.393188e-01 9.007388e-01 -3.176052e-01
1.405000e+10 8.996539e-01 -3.199593e-01 5.322989e-02 1.415190e-01 5.322978e-02 1.415182e-01 8.992447e-01 -3.204373e-01
1.410000e+10 8.981483e-01 -3.227803e-01 5.459966e-02 1.437065e-01 5.459954e-02 1.437057e-01 8.977371e-01 -3.232577e-01
1.415000e+10 8.966294e-01 -3.255897e-01 5.598257e-02 1.458821e-01 5.598245e-02 1.458813e-01 8.962162e-01 -3.260666e-01
1.420000e+10 8.950972e-01 -3.283876e-01 5.737855e-02 1.480458e-01 5.737843e-02 1.480450e-01 8.946820e-01 -3.288639e-01
1.425000e+10 8.935517e-01 -3.311739e-01 5.878751e-02 1.501977e-01 5.878739e-02 1.501969e-01 8.931346e-01 -3.316496e-01
1.430000e+10 8.919932e-01 -3.339488e-01 6.020938e-02 1.523377e-01 6.020925e-02 1.523369e-01 8.915741e-01 -3.344239e-01
1.435000e+10 8.904215e-01 -3.367123e-01 6.164406e-02 1.544660e-01 6.164393e-02 1.544652e-01 8.900006e-01 -3.371867e-01
1.440000e+10 8.888370e-01 -3.394644e-01 6.309148e-02 1.565825e-01 6.309134e-02 1.565816e-01 8.884141e-01 -3.399381e-01
1.445000e+10 8.872395e-01 -3.422051e-01 6.455157e-02 1.586872e-01 6.455143e-02 1.586864e-01 8.868147e-01 -3.426781e-01
1.450000e+10 8.856292e-01 -3.449344e-01 6.602424e-02 1.607802e-01 6.602410e-02 1.607793e-01 8.852025e-01 -3.454067e-01
1.455000e+10 8.840061e-01 -3.476525e-01 6.750943e-02 1.628614e-01 6.750928e-02 1.628606e-01 8.835776e-01 -3.481240e-01
1.460000e+10 8.823704e-01 -3.503593e-01 6.900707e-02 1.649310e-01 6.900692e-02 1.649302e-01 8.819400e-01 -3.508300e-01
1.465000e+10 8.807220e-01 -3.530549e-01 7.051708e-02 1.669889e-01 7.051693e-02 1.669881e-01 8.802897e-01 -3.535248e-01
1.470000e+10 8.790611e-01 -3.557392e-01 7.203941e-02 1.690352e-01 7.203925e-02 1.690343e-01 8.786270e-01 -3.562084e-01
1.475000e+10 8.773877e-01 -3.584124e-01 7.357398e-02 1.710698e-01 7.357381e-02 1.710690e-01 8.769517e-01 -3.588807e-01
1.480000e+10 8.757018e-01 -3.610745e-01 7.512074e-02 1.730928e-01 7.512057e-02 1.730920e-01 8.752640e-01 -3.615420e-01
1.485000e+10 8.740036e-01 -3.637255e-01 7.667962e-02 1.751043e-01 7.667944e-02 1.751034e-01 8.735639e-01 -3.641921e-01
1.490000e+10 8.722930e-01 -3.663655e-01 7.825056e-02 1.771042e-01 7.825038e-02 1.771033e-01 8.718516e-01 -3.668311e-01
1.495000e+10 8.705701e-01 -3.689944e-01 7.983352e-02 1.790926e-01 7.983333e-02 1.790917e-01 8.701269e-01 -3.694591e-01
1.500000e+10 8.688350e-01 -3.716124e-01 8.142843e-02 1.810694e-01 8.142824e-02 1.810686e-01 8.683900e-01 -3.720761e-01
1.505000e+10 8.670876e-01 -3.742194e-01 8.303524e-02 1.830348e-01 8.303505e-02 1.830339e-01 8.666409e-01 -3.746822e-01
1.510000e+10 8.653281e-01 -3.768155e-01 8.465392e-02 1.849887e-01 8.465372e-02 1.849878e-01 8.648797e-01 -3.772773e-01
1.515000e+10 8.635565e-01 -3.794007e-01 8.628440e-02 1.869312e-01 8.628419e-02 1.869303e-01 8.631063e-01 -3.798615e-01
1.520000e+10 8.617729e-01 -3.819751e-01 8.792664e-02 1.888622e-01 8.792643e-02 1.888613e-01 8.613209e-01 -3.824348e-01
1.525000e+10 8.599771e-01 -3.845386e-01 8.958060e-02 1.907818e-01 8.958039e-02 1.907809e-01 8.595235e-01 -3.849973e-01
1.530000e+10 8.581694e-01 -3.870914e-01 9.124625e-02 1.926901e-01 9.124603e-02 1.926892e-01 8.577141e-01 -3.875489e-01
1.535000e+10 8.563496e-01 -3.896334e-01 9.292353e-02 1.945870e-01 9.292331e-02 1.945861e-01 8.558926e-01 -3.900898e-01
1.540000e+10 8.545179e-01 -3.921647e-01 9.461242e-02 1.964725e-01 9.461219e-02 1.964716e-01 8.540593e-01 -3.926200e-01
1.545000e+10 8.526743e-01 -3.946853e-01 9.631288e-02 1.983467e-01 9.631265e-02 1.983458e-01 8.522140e-01 -3.951395e-01
1.550000e+10 8.508187e-01 -3.971953e-01 9.802488e-02 2.002096e-01 9.802464e-02 2.002087e-01 8.503568e-01 -3.976483e-01
1.555000e+10 8.489512e-01 -3.996946e-01 9.974839e-02 2.020613e-01 9.974815e-02 2.020603e-01 8.484877e-01 -4.001464e-01
1.560000e+10 8.470719e-01 -4.021833e-01 1.014834e-01 2.039016e-01 1.014831e-01 2.039007e-01 8.466067e-01 -4.026339e-01
1.565000e+10 8.451806e-01 -4.046614e-01 1.032298e-01 2.057307e-01 1.032296e-01 2.057298e-01 8.447139e-01 -4.051108e-01
1.570000e+10 8.432775e-01 -4.071290e-01 1.049877e-01 2.075485e-01 1.049875e-01 2.075476e-01 8.428092e-01 -4.075771e-01
1.575000e+10 8.413625e-01 -4.095861e-01 1.067570e-01 2.093551e-01 1.067568e-01 2.093542e-01 8.408927e-01 -4.100329e-01
1.580000e+10 8.394356e-01 -4.120326e-01 1.085377e-01 2.111505e-01 1.085374e-01 2.111496e-01 8.389643e-01 -4.124781e-01
1.585000e+10 8.374969e-01 -4.144687e-01 1.103298e-01 2.129347e-01 1.103295e-01 2.129338e-01 8.370241e-01 -4.149129e-01
1.590000e+10 8.355463e-01 -4.168943e-01 1.121332e-01 2.147077e-01 1.121329e-01 2.147068e-01 8.350720e-01 -4.173372e-01
1.595000e+10 8.335839e-01 -4.193095e-01 1.139480e-01 2.164695e-01 1.139477e-01 2.164686e-01 8.331080e-01 -4.197510e-01
1.600000e+10 8.316096e-01 -4.217142e-01 1.157742e-01 2.182201e-01 1.157739e-01 2.182192e-01 8.311323e-01 -4.221543e-01
1.605000e+10 8.296234e-01 -4.241085e-01 1.176117e-01 2.199596e-01 1.176114e-01 2.199587e-01 8.291446e-01 -4.245472e-01
1.610000e+10 8.276252e-01 -4.264924e-01 1.194605e-01 2.216879e-01 1.194602e-01 2.216869e-01 8.271451e-01 -4.269297e-01
1.615000e+10 8.256152e-01 -4.288660e-01 1.213206e-01 2.234050e-01 1.213203e-01 2.234041e-01 8.251336e-01 -4.293018e-01
1.620000e+10 8.235932e-01 -4.312291e-01 1.231921e-01 2.251110e-01 1.231918e-01 2.251100e-01 8.231103e-01 -4.316635e-01
1.625000e+10 8.215593e-01 -4.335819e-01 1.250749e-01 2.268058e-01 1.250746e-01 2.268049e-01 8.210750e-01 -4.340148e-01
1.630000e+10 8.195134e-01 -4.359243e-01 1.269691e-01 2.284895e-01 1.269687e-01 2.284885e-01 8.190277e-01 -4.363557e-01
1.635000e+10 8.174555e-01 -4.382564e-01 1.288746e-01 2.301619e-01 1.288742e-01 2.301610e-01 8.169684e-01 -4.386863e-01
1.640000e+10 8.153855e-01 -4.405781e-01 1.307915e-01 2.318233e-01 1.307911e-01 2.318223e-01 8.148972e-01 -4.410064e-01
1.645000e+10 8.133035e-01 -4.428894e-01 1.327197e-01 2.334734e-01 1.327193e-01 2.334725e-01 8.128139e-01 -4.433162e-01
1.650000e+10 8.112094e-01 -4.451904e-01 1.346593e-01 2.351124e-01 1.346589e-01 2.351114e-01 8.107184e-01 -4.456156e-01
1.655000e+10 8.091031e-01 -4.474810e-01 1.366103e-01 2.367402e-01 1.366099e-01 2.367392e-01 8.086109e-01 -4.479046e-01
1.660000e+10 8.069846e-01 -4.497612e-01 1.385726e-01 2.383567e-01 1.385722e-01 2.383558e-01 8.064912e-01 -4.501832e-01
1.665000e+10 8.048540e-01 -4.520310e-01 1.405465e-01 2.399621e-01 1.405461e-01 2.399611e-01 8.043593e-01 -4.524514e-01
1.670000e+10 8.027110e-01 -4.542905e-01 1.425317e-01 2.415562e-01 1.425313e-01 2.415552e-01 8.022152e-01 -4.547091e-01
1.675000e+10 8.005557e-01 -4.565394e-01 1.445285e-01 2.431390e-01 1.445281e-01 2.431380e-01 8.000587e-01 -4.569564e-01
1.680000e+10 7.983881e-01 -4.587780e-01 1.465367e-01 2.447106e-01 1.465363e-01 2.447096e-01 7.978899e-01 -4.591933e-01
1.685000e+10 7.962080e-01 -4.610060e-01 1.485565e-01 2.462708e-01 1.485561e-01 2.462698e-01 7.957087e-01 -4.614196e-01
1.690000e+10 7.940155e-01 -4.632236e-01 1.505878e-01 2.478197e-01 1.505874e-01 2.478188e-01 7.935151e-01 -4.636354e-01
1.695000e+10 7.918105e-01 -4.654306e-01 1.526307e-01 2.493573e-01 1.526303e-01 2.493563e-01 7.913089e-01 -4.658407e-01
1.700000e+10 7.895928e-01 -4.676271e-01 1.546853e-01 2.508834e-01 1.546848e-01 2.508824e-01 7.890902e-01 -4.680353e-01
1.705000e+10 7.873625e-01 -4.698129e-01 1.567514e-01 2.523981e-01 1.567510e-01 2.523971e-01 7.868588e-01 -4.702194e-01
1.710000e+10 7.851195e-01 -4.719881e-01 1.588293e-01 2.539013e-01 1.588288e-01 2.539004e-01 7.846148e-01 -4.723928e-01
1.715000e+10 7.828637e-01 -4.741525e-01 1.609189e-01 2.553930e-01 1.609184e-01 2.553921e-01 7.823580e-01 -4.745554e-01
1.720000e+10 7.805951e-01 -4.763063e-01 1.630202e-01 2.568732e-01 1.630197e-01 2.568722e-01 7.800884e-01 -4.767073e-01
1.725000e+10 7.783135e-01 -4.784492e-01 1.651334e-01 2.583417e-01 1.651329e-01 2.583407e-01 7.778059e-01 -4.788483e-01
1.730000e+10 7.760190e-01 -4.805812e-01 1.672584e-01 2.597985e-01 1.672579e-01 2.597975e-01 7.755104e-01 -4.809785e-01
1.735000e+10 7.737114e-01 -4.827023e-01 1.693953e-01 2.612436e-01 1.693948e-01 2.612427e-01 7.732019e-01 -4.830977e-01
1.740000e+10 7.713907e-01 -4.848124e-01 1.715442e-01 2.626769e-01 1.715436e-01 2.626760e-01 7.708803e-01 -4.852058e-01
1.745000e+10 7.690568e-01 -4.869115e-01 1.737050e-01 2.640984e-01 1.737044e-01 2.640974e-01 7.685455e-01 -4.873029e-01
1.750000e+10 7.667097e-01 -4.889993e-01 1.758778e-01 2.655079e-01 1.758773e-01 2.655070e-01 7.661974e-01 -4.893888e-01
1.755000e+10 7.643491e-01 -4.910759e-01 1.780628e-01 2.669055e-01 1.780622e-01 2.669045e-01 7.638361e-01 -4.914635e-01
1.760000e+10 7.619752e-01 -4.931412e-01 1.802598e-01 2.682909e-01 1.802592e-01 2.682900e-01 7.614613e-01 -4.935268e-01
1.765000e+10 7.595877e-01 -4.951951e-01 1.824691e-01 2.696642e-01 1.824685e-01 2.696633e-01 7.590730e-01 -4.955786e-01
1.770000e+10 7.571866e-01 -4.972374e-01 1.846905e-01 2.710253e-01 1.846899e-01 2.710243e-01 7.566712e-01 -4.976189e-01
1.775000e+10 7.547719e-01 -4.992681e-01 1.869243e-01 2.723740e-01 1.869237e-01 2.723730e-01 7.542557e-01 -4.996475e-01
1.780000e+10 7.523434e-01 -5.012871e-01 1.891704e-01 2.737103e-01 1.891697e-01 2.737093e-01 7.518265e-01 -5.016644e-01
1.785000e+10 7.499011e-01 -5.032942e-01 1.914288e-01 2.750340e-01 1.914282e-01 2.750331e-01 7.493835e-01 -5.036694e-01
1.790000e+10 7.474449e-01 -5.052893e-01 1.936997e-01 2.763452e-01 1.936991e-01 2.763442e-01 7.469266e-01 -5.056624e-01
1.795000e+10 7.449747e-01 -5.072723e-01 1.959831e-01 2.776436e-01 1.959825e-01 2.776426e-01 7.444558e-01 -5.076433e-01
1.800000e+10 7.424904e-01 -5.092431e-01 1.982791e-01 2.789291e-01 1.982784e-01 2.789282e-01 7.419708e-01 -5.096119e-01
1.805000e+10 7.399920e-01 -5.112014e-01 2.005876e-01 2.802016e-01 2.005869e-01 2.802007e-01 7.394718e-01 -5.115681e-01
1.810000e+10 7.374794e-01 -5.131472e-01 2.029088e-01 2.814611e-01 2.029081e-01 2.814602e-01 7.369585e-01 -5.135117e-01
1.815000e+10 7.349524e-01 -5.150804e-01 2.052427e-01 2.827073e-01 2.052420e-01 2.827064e-01 7.344310e-01 -5.154427e-01
1.820000e+10 7.324110e-01 -5.170006e-01 2.075893e-01 2.839402e-01 2.075886e-01 2.839393e-01 7.318891e-01 -5.173607e-01
1.825000e+10 7.298552e-01 -5.189079e-01 2.099488e-01 2.851595e-01 2.099481e-01 2.851586e-01 7.293328e-01 -5.192657e-01
1.830000e+10 7.272849e-01 -5.208020e-01 2.123211e-01 2.863652e-01 2.123204e-01 2.863643e-01 7.267619e-01 -5.211575e-01
1.835000e+10 7.246999e-01 -5.226827e-01 2.147063e-01 2.875571e-01 2.147056e-01 2.875562e-01 7.241765e-01 -5.230359e-01
1.840000e+10 7.221002e-01 -5.245498e-01 2.171045e-01 2.887351e-01 2.171037e-01 2.887341e-01 7.215764e-01 -5.249007e-01
1.845000e+10 7.194858e-01 -5.264031e-01 2.195156e-01 2.898989e-01 2.195149e-01 2.898980e-01 7.189615e-01 -5.267518e-01
1.850000e+10 7.168566e-01 -5.282425e-01 2.219398e-01 2.910484e-01 2.219390e-01 2.910475e-01 7.163319e-01 -5.285888e-01
1.855000e+10 7.142125e-01 -5.300677e-01 2.243771e-01 2.921834e-01 2.243763e-01 2.921825e-01 7.136874e-01 -5.304117e-01
1.860000e+10 7.115535e-01 -5.318786e-01 2.268275e-01 2.933038e-01 2.268267e-01 2.933029e-01 7.110280e-01 -5.322201e-01
1.865000e+10 7.088794e-01 -5.336748e-01 2.292910e-01 2.944093e-01 2.292902e-01 2.944085e-01 7.083536e-01 -5.340140e-01
1.870000e+10 7.061903e-01 -5.354562e-01 2.317678e-01 2.954999e-01 2.317670e-01 2.954990e-01 7.056642e-01 -5.357929e-01
1.875000e+10 7.034861e-01 -5.372224e-01 2.342578e-01 2.965751e-01 2.342569e-01 2.965743e-01 7.029597e-01 -5.375568e-01
1.880000e+10 7.007668e-01 -5.389734e-01 2.367610e-01 2.976350e-01 2.367602e-01 2.976341e-01 7.002401e-01 -5.393052e-01
1.885000e+10 6.980322e-01 -5.407087e-01 2.392775e-01 2.986792e-01 2.392767e-01 2.986783e-01 6.975053e-01 -5.410381e-01
1.890000e+10 6.952824e-01 -5.424282e-01 2.418073e-01 2.997075e-01 2.418065e-01 2.997066e-01 6.947553e-01 -5.427551e-01
1.895000e+10 6.925174e-01 -5.441316e-01 2.443505e-01 3.007197e-01 2.443496e-01 3.007188e-01 6.919901e-01 -5.444560e-01
1.900000e+10 6.897371e-01 -5.458186e-01 2.469070e-01 3.017156e-01 2.469061e-01 3.017147e-01 6.892096e-01 -5.461404e-01
1.905000e+10 6.869415e-01 -5.474889e-01 2.494768e-01 3.026949e-01 2.494759e-01 3.026941e-01 6.864138e-01 -5.478081e-01
1.910000e+10 6.841306e-01 -5.491422e-01 2.520600e-01 3.036574e-01 2.520591e-01 3.036566e-01 6.836028e-01 -5.494589e-01
1.915000e+10 6.813043e-01 -5.507782e-01 2.546565e-01 3.046029e-01 2.546556e-01 3.046020e-01 6.807764e-01 -5.510923e-01
1.920000e+10 6.784627e-01 -5.523967e-01 2.572664e-01 3.055310e-01 2.572655e-01 3.055301e-01 6.779348e-01 -5.527081e-01
1.925000e+10 6.756059e-01 -5.539972e-01 2.598896e-01 3.064415e-01 2.598887e-01 3.064407e-01 6.750779e-01 -5.543060e-01
1.930000e+10 6.727337e-01 -5.555795e-01 2.625262e-01 3.073342e-01 2.625253e-01 3.073334e-01 6.722057e-01 -5.558856e-01
1.935000e+10 6.698463e-01 -5.571433e-01 2.651760e-01 3.082087e-01 2.651751e-01 3.082079e-01 6.693182e-01 -5.574467e-01
1.940000e+10 6.669436e-01 -5.586881e-01 2.678391e-01 3.090649e-01 2.678382e-01 3.090641e-01 6.664156e-01 -5.589888e-01
1.945000e+10 6.640257e-01 -5.602137e-01 2.705155e-01 3.099023e-01 2.705145e-01 3.099015e-01 6.634977e-01 -5.605117e-01
1.950000e+10 6.610927e-01 -5.617197e-01 2.732050e-01 3.107207e-01 2.732040e-01 3.107199e-01 6.605648e-01 -5.620149e-01
1.955000e+10 6.581446e-01 -5.632058e-01 2.759077e-01 3.115198e-01 2.759067e-01 3.115191e-01 6.576168e-01 -5.634981e-01
1.960000e+10 6.551816e-01 -5.646715e-01 2.786234e-01 3.122994e-01 2.786224e-01 3.122986e-01 6.546538e-01 -5.649610e-01
1.965000e+10 6.522036e-01 -5.661165e-01 2.813521e-01 3.130589e-01 2.813511e-01 3.130582e-01 6.516760e-01 -5.664032e-01
1.970000e+10 6.492108e-01 -5.675404e-01 2.840938e-01 3.137983e-01 2.840928e-01 3.137975e-01 6.486834e-01 -5.678243e-01
1.975000e+10 6.462033e-01 -5.689429e-01 2.868483e-01 3.145170e-01 2.868473e-01 3.145163e-01 6.456760e-01 -5.692238e-01
1.980000e+10 6.431811e-01 -5.703235e-01 2.896155e-01 3.152149e-01 2.896145e-01 3.152141e-01 6.426541e-01 -5.706015e-01
1.985000e+10 6.401446e-01 -5.716818e-01 2.923954e-01 3.158915e-01 2.923944e-01 3.158908e-01 6.396178e-01 -5.719569e-01
1.990000e+10 6.370937e-01 -5.730174e-01 2.951878e-01 3.165466e-01 2.951868e-01 3.165458e-01 6.365672e-01 -5.732896e-01
1.995000e+10 6.340287e-01 -5.743300e-01 2.979926e-01 3.171797e-01 2.979916e-01 3.171789e-01 6.335025e-01 -5.745991e-01
2.000000e+10 6.309498e-01 -5.756191e-01 3.008097e-01 3.177905e-01 3.008086e-01 3.177898e-01 6.304238e-01 -5.758852e-01
